! Synthetic matched dispersive cable, not measured data.
! H(s)=A0*exp(-s*tau-k*sqrt(s)); principal square root.
! tau=5 ns; A0=10^(-0.1/20); k=(11.9*ln(10)/20)/sqrt(pi*40e9).
! Loss=0.1+11.9*sqrt(f/40e9) dB; includes associated phase lag.
! Z0=50 ohm; no dielectric loss or impedance variation.
! 4201 points: geomspace(1e6,1e9,301) plus linspace(1e9,40e9,3901), unique.
! Complex Gaussian noise RMS=0.001 per independent entry; S12=S21; seed=2026.
! Hold out zero-based frequency indices divisible by 5.
! Generator: examples/electrical/time_delay.ipynb, noisy-cable section.
# Hz S RI R 50
1.00000000000000000e+06 -5.60822280495609587e-04 -3.02903703964916020e-04 9.81255829861675921e-01 -3.71406193308607344e-02 9.81255829861675921e-01 -3.71406193308607344e-02 -1.34090522114423084e-03 2.58114977363175678e-04
1.02329299228075356e+06 9.86959641206201560e-04 -2.79749438209090306e-04 9.81428459293290478e-01 -3.72639485243673185e-02 9.81428459293290478e-01 -3.72639485243673185e-02 -2.06508757227089919e-04 -9.75799484410852644e-04
1.04712854805089848e+06 -2.20581485349861099e-04 -7.57450354075388672e-05 9.81081118744773217e-01 -3.91042461481958536e-02 9.81081118744773217e-01 -3.91042461481958536e-02 -1.89264414743129159e-04 -8.76271257803477974e-04
1.07151930523760710e+06 -1.59741687658638610e-04 -9.48410727633044754e-04 9.81262289037002078e-01 -3.98560179869268116e-02 9.81262289037002078e-01 -3.98560179869268116e-02 3.63951541314650004e-04 -3.78742111504515799e-04
1.09647819614318502e+06 -4.53452981504252745e-05 6.81645886165530100e-04 9.80577151501101474e-01 -4.12316950000839386e-02 9.80577151501101474e-01 -4.12316950000839386e-02 1.13785022960479813e-04 -2.91453505355632018e-04
1.12201845430196286e+06 -4.34176570537595018e-04 9.11561462538015019e-04 9.80234109600529924e-01 -4.25519679636720272e-02 9.80234109600529924e-01 -4.25519679636720272e-02 3.87678491278516807e-04 2.62034282170620967e-05
1.14815362149688159e+06 -9.22652678580662515e-05 6.85400761877265558e-04 9.79427214229565912e-01 -4.25873570887076655e-02 9.79427214229565912e-01 -4.25873570887076655e-02 -3.37487019168673569e-04 -3.69869780495861889e-04
1.17489755493953032e+06 4.64301589776657171e-04 6.74403659874755709e-04 9.80111690418441484e-01 -4.46949179029653837e-02 9.80111690418441484e-01 -4.46949179029653837e-02 -1.05169978703036198e-04 -1.29858583847422180e-04
1.20226443461741321e+06 4.53847032193791368e-04 -6.19649155763965531e-04 9.81440289813096500e-01 -4.43204475766189668e-02 9.81440289813096500e-01 -4.43204475766189668e-02 -5.04300546143493771e-04 -2.73649304570977863e-04
1.23026877081238106e+06 9.53326180221157008e-04 -4.56486802831408429e-04 9.79151710320802726e-01 -4.48230398186669834e-02 9.79151710320802726e-01 -4.48230398186669834e-02 1.23727863595619837e-04 5.91564705990521120e-05
1.25892541179416608e+06 -8.26982254045052984e-04 2.69334549144474935e-04 9.80845567709404342e-01 -4.57833706621759706e-02 9.80845567709404342e-01 -4.57833706621759706e-02 5.89672605966882861e-04 -1.18097234073376149e-03
1.28824955169313494e+06 8.04487253499353667e-04 -2.46984892573196674e-04 9.79129278227073185e-01 -4.74971933128554777e-02 9.79129278227073185e-01 -4.74971933128554777e-02 4.84053500615586063e-04 5.22419654218304517e-04
1.31825673855640739e+06 -3.66997845048647631e-04 -1.32169554690584777e-03 9.79294447205183771e-01 -4.80041536073581784e-02 9.79294447205183771e-01 -4.80041536073581784e-02 3.58175803765271048e-04 8.23799110337415045e-04
1.34896288259165315e+06 6.19933364942099464e-04 -3.48413593549195904e-04 9.79621653434678330e-01 -4.88843360832847337e-02 9.79621653434678330e-01 -4.88843360832847337e-02 -4.44053937622275691e-04 -1.43362395927062010e-04
1.38038426460288372e+06 -5.83940461932258418e-04 4.07353999826883613e-04 9.80354339785826090e-01 -4.96874431387328633e-02 9.80354339785826090e-01 -4.96874431387328633e-02 4.19983181122684796e-04 3.05804106890028473e-04
1.41253754462275538e+06 5.08924504457916528e-04 1.25066832797068699e-03 9.80729554490483380e-01 -5.20050691024263601e-02 9.80729554490483380e-01 -5.20050691024263601e-02 -5.76902223499127531e-04 6.63828693256612043e-04
1.44543977074592793e+06 1.80980996541356604e-03 1.65064020334821206e-03 9.81262642737463109e-01 -5.27545971962574134e-02 9.81262642737463109e-01 -5.27545971962574134e-02 1.14439089209721892e-03 -1.77782948120977995e-04
1.47910838816820714e+06 5.84852637226400732e-04 -2.26266213292099726e-04 9.78410594866818584e-01 -5.43684952995511853e-02 9.78410594866818584e-01 -5.43684952995511853e-02 7.03207531224240559e-04 -9.09084639355189233e-04
1.51356124843620718e+06 -3.13030620609136784e-04 1.44329619112457943e-03 9.78706279012858782e-01 -5.52205766946632162e-02 9.78706279012858782e-01 -5.52205766946632162e-02 -2.05367269213840322e-04 7.66086351636840329e-04
1.54881661891248263e+06 2.00698086938690400e-04 7.16670336520237980e-04 9.79470091323679348e-01 -5.52975652805368159e-02 9.79470091323679348e-01 -5.52975652805368159e-02 -3.92857254836536946e-04 -1.15774492791920983e-03
1.58489319246111414e+06 -6.96785732967197249e-04 -4.61241590768520892e-04 9.77683735030406620e-01 -5.69229885623620604e-02 9.77683735030406620e-01 -5.69229885623620604e-02 -6.84675464144947994e-04 7.05158510287729498e-05
1.62181009735892992e+06 -1.01194262441870494e-03 1.52935801125208501e-04 9.77576850755741633e-01 -5.86357932569585294e-02 9.77576850755741633e-01 -5.86357932569585294e-02 9.14476887312773066e-04 -8.42466326010030435e-04
1.65958690743755968e+06 -4.19534916100933392e-04 2.04035466305256297e-04 9.78229315438978397e-01 -5.99750901793316207e-02 9.78229315438978397e-01 -5.99750901793316207e-02 -8.60473975406605149e-04 -1.29867137739931248e-03
1.69824365246174601e+06 1.19961075479834106e-04 -1.67590625522329585e-04 9.76637217749276032e-01 -6.17058515263947949e-02 9.76637217749276032e-01 -6.17058515263947949e-02 -4.94095033501974800e-04 9.56235624961694858e-04
1.73780082874937635e+06 1.59419976382143614e-03 -1.13157104758162814e-03 9.77271876866242617e-01 -6.28769009815752788e-02 9.77271876866242617e-01 -6.28769009815752788e-02 7.91942896879042294e-04 2.74254209258871008e-04
1.77827941003892291e+06 3.21771857680114260e-04 -6.12009629855111699e-04 9.77387052661053524e-01 -6.24008630530457284e-02 9.77387052661053524e-01 -6.24008630530457284e-02 -4.61109155402733833e-04 -1.03879441167965308e-05
1.81970085860998253e+06 9.09982362390850444e-04 8.66974822742783878e-06 9.77175922908524952e-01 -6.46696447961105925e-02 9.77175922908524952e-01 -6.46696447961105925e-02 1.08005220633627746e-03 1.77855167125975022e-03
1.86208713666286552e+06 -5.08465658318064061e-04 3.40615260425902635e-04 9.77142823993026433e-01 -6.59926466621197361e-02 9.77142823993026433e-01 -6.59926466621197361e-02 3.29157589189952584e-04 1.50777810709026193e-04
1.90546071796324826e+06 2.63864088816974005e-04 -1.52970541429928148e-04 9.76025388811492367e-01 -6.65851198453146359e-02 9.76025388811492367e-01 -6.65851198453146359e-02 -4.69563261243697834e-04 5.32287427128921311e-04
1.94984459975804552e+06 -1.38578937849582730e-04 -1.19382150852850465e-04 9.76084110682731265e-01 -7.00068960006028362e-02 9.76084110682731265e-01 -7.00068960006028362e-02 4.78941177556993557e-04 1.97444957327448667e-04
1.99526231496887887e+06 4.15792350606568415e-04 1.01362351355281400e-04 9.75088048160911547e-01 -7.18214218363870116e-02 9.75088048160911547e-01 -7.18214218363870116e-02 -1.27650739556199990e-03 -7.93544980855441333e-04
2.04173794466952747e+06 -9.06202083558930440e-04 -1.12573016347004016e-03 9.76332959530903488e-01 -7.18084949551258817e-02 9.76332959530903488e-01 -7.18084949551258817e-02 1.43767008331264871e-03 -2.00352414080749800e-04
2.08929613085404085e+06 -2.70366838956281419e-04 -9.84694720538517674e-04 9.76199161013947214e-01 -7.44939850064257336e-02 9.76199161013947214e-01 -7.44939850064257336e-02 -7.51733495707456617e-04 2.14178735632718133e-04
2.13796208950223261e+06 -7.40224987071297358e-04 -7.88098881390715067e-04 9.74403347305705991e-01 -7.61489118243839080e-02 9.74403347305705991e-01 -7.61489118243839080e-02 -2.00424097734640033e-05 -1.34561627749032905e-04
2.18776162394955195e+06 6.69783339676932490e-04 1.76806256248672781e-04 9.75293736390315580e-01 -7.77783062682328302e-02 9.75293736390315580e-01 -7.77783062682328302e-02 9.87441447176444238e-04 -1.32720399499127459e-03
2.23872113856833754e+06 1.39904508086858388e-04 6.84044438617128375e-04 9.75271882231633302e-01 -7.88241785562008579e-02 9.75271882231633302e-01 -7.88241785562008579e-02 3.65753735118728171e-04 3.33946429980971134e-04
2.29086765276777465e+06 3.44627984591249750e-04 -1.08697031820018347e-04 9.75853641501475022e-01 -8.06587683832613589e-02 9.75853641501475022e-01 -8.06587683832613589e-02 -5.67067298587043745e-04 2.42336249237247735e-04
2.34422881531992275e+06 -1.61789507590181202e-03 1.75628182675084687e-04 9.74859996877767254e-01 -8.19143101269671076e-02 9.74859996877767254e-01 -8.19143101269671076e-02 -4.32519650211576824e-04 6.17582184910769297e-04
2.39883291901949001e+06 -1.92171876218833235e-05 -5.20111780929636896e-04 9.75684688838183933e-01 -8.41830386043025264e-02 9.75684688838183933e-01 -8.41830386043025264e-02 -7.79826918956824330e-04 -4.73499972194853594e-04
2.45470891568502877e+06 5.40793382981994883e-04 -3.70660984333325005e-04 9.74897517841198713e-01 -8.76978089338775330e-02 9.74897517841198713e-01 -8.76978089338775330e-02 3.25789718872740734e-04 -1.34836075112604228e-03
2.51188643150958233e+06 7.90904704162281153e-04 4.79685442144521664e-04 9.73616938383742414e-01 -8.85111422501144163e-02 9.73616938383742414e-01 -8.85111422501144163e-02 -4.81900133663864323e-04 -6.25241663413714059e-04
2.57039578276886465e+06 7.34671782398768495e-04 2.34885999790974590e-04 9.74153927212206172e-01 -9.06275942250281685e-02 9.74153927212206172e-01 -9.06275942250281685e-02 9.83145812729653047e-04 1.35804477866505549e-03
2.63026799189538136e+06 1.50111400045739373e-04 1.09403393049304601e-03 9.74487016720124721e-01 -9.30762760645478526e-02 9.74487016720124721e-01 -9.30762760645478526e-02 -1.99460864886058135e-04 7.81714555063894780e-04
2.69153480392691400e+06 -7.49765936614554688e-04 6.14437376486029214e-04 9.71583402241293248e-01 -9.28474837987236790e-02 9.71583402241293248e-01 -9.28474837987236790e-02 -7.78808321026098365e-04 -1.11004549966086221e-03
2.75422870333816903e+06 5.78769379579412418e-04 -2.45915322053463792e-04 9.71662928162603801e-01 -9.53251774264280427e-02 9.71662928162603801e-01 -9.53251774264280427e-02 -3.19869830293057367e-04 -1.61117632190326655e-04
2.81838293126445496e+06 1.48957980172871726e-03 2.31631791472501977e-04 9.72962202858821623e-01 -9.75875809085684220e-02 9.72962202858821623e-01 -9.75875809085684220e-02 1.26641732535988697e-03 8.46193087855893209e-04
2.88403150312660588e+06 -7.01140346723112405e-04 -1.20030196705504235e-03 9.70277876379697979e-01 -9.91358021765661873e-02 9.70277876379697979e-01 -9.91358021765661873e-02 1.07224324348651921e-03 6.07345705159528879e-04
2.95120922666638391e+06 -1.00192967677562310e-03 1.07403784461103315e-03 9.71724388441378650e-01 -1.03349683976302661e-01 9.71724388441378650e-01 -1.03349683976302661e-01 1.53508096251519973e-04 -1.38908955114699180e-03
3.01995172040201910e+06 -6.70971087826390824e-04 -5.55244044727297372e-04 9.72389114884963379e-01 -1.03628792225574348e-01 9.72389114884963379e-01 -1.03628792225574348e-01 1.09554707329588422e-03 -5.03788042630553298e-04
3.09029543251359183e+06 3.89929915036899889e-04 1.21037332023540291e-03 9.70889440055276998e-01 -1.07168409942769507e-01 9.70889440055276998e-01 -1.07168409942769507e-01 1.35366282737492887e-04 3.67839424178533565e-04
3.16227766016837908e+06 -7.74923986893344234e-04 1.70404567907087815e-04 9.70347724634337494e-01 -1.07950205644404731e-01 9.70347724634337494e-01 -1.07950205644404731e-01 -7.41989394899239096e-05 2.24778659265106125e-04
3.23593656929628085e+06 -6.02619628168503960e-04 -4.87514443907886179e-04 9.70710632411167618e-01 -1.12768468016121504e-01 9.70710632411167618e-01 -1.12768468016121504e-01 -1.00867466737198275e-03 -9.20445678862376429e-05
3.31131121482590772e+06 -3.20615632862534139e-04 1.36083681569653119e-03 9.68096864774278698e-01 -1.13879620160611122e-01 9.68096864774278698e-01 -1.13879620160611122e-01 3.51303733375355528e-04 -7.74455570108853881e-05
3.38844156139202742e+06 5.25101366514967938e-04 6.26719247124536845e-04 9.69694754994632868e-01 -1.16686813747302817e-01 9.69694754994632868e-01 -1.16686813747302817e-01 2.06339882843216936e-03 1.17157811883987506e-04
3.46736850452531688e+06 6.64532627013260662e-04 5.78976602583551017e-04 9.68140106249370969e-01 -1.18912714902506989e-01 9.68140106249370969e-01 -1.18912714902506989e-01 1.88340734232862045e-03 4.39160233141709893e-04
3.54813389233575296e+06 -6.50763079819758174e-04 9.65648888989868124e-05 9.68899276711138735e-01 -1.21115653168119855e-01 9.68899276711138735e-01 -1.21115653168119855e-01 5.25470582770064297e-04 6.64690336631779425e-04
3.63078054770101747e+06 -6.22058112134479639e-04 -1.77302147689540452e-03 9.68847534947657629e-01 -1.23799976059050174e-01 9.68847534947657629e-01 -1.23799976059050174e-01 2.50735623092043867e-04 8.55691688664335522e-04
3.71535229097172804e+06 4.03725862800236436e-04 7.28865049326173336e-04 9.66885670278144316e-01 -1.26279202937496227e-01 9.66885670278144316e-01 -1.26279202937496227e-01 9.21100891033877541e-04 7.03852783490484875e-04
3.80189396320561273e+06 -6.08775071592893382e-04 1.00014148594188587e-03 9.65590633602128379e-01 -1.29748937160793720e-01 9.65590633602128379e-01 -1.29748937160793720e-01 1.00771695148413960e-03 8.63790710472340270e-04
3.89045144994280487e+06 -3.01742818972514993e-04 -9.07532182752830106e-05 9.66346422849286957e-01 -1.31458071160846485e-01 9.66346422849286957e-01 -1.31458071160846485e-01 1.35959448050850386e-03 -4.79141322104505380e-04
3.98107170553496899e+06 8.03620739057962731e-04 3.65295939303060156e-04 9.66211315631333334e-01 -1.36135420908033516e-01 9.66211315631333334e-01 -1.36135420908033516e-01 7.56543323711270609e-04 -7.50894680361129411e-04
4.07380277804113040e+06 -5.14426328414725113e-04 1.74054718642404900e-04 9.65724909043254587e-01 -1.36129248333362318e-01 9.65724909043254587e-01 -1.36129248333362318e-01 7.84844060499844103e-04 1.70337661333737914e-04
4.16869383470335510e+06 5.34164199649615041e-04 9.19212853892021307e-04 9.64455996409715244e-01 -1.40457788489332547e-01 9.64455996409715244e-01 -1.40457788489332547e-01 -2.64982175099679786e-03 9.74019566973912142e-05
4.26579518801592570e+06 3.94072384862578470e-04 3.16149839835181486e-04 9.64068123991728476e-01 -1.44503864335489618e-01 9.64068123991728476e-01 -1.44503864335489618e-01 -2.61313864443335269e-04 -1.61762898554289585e-03
4.36515832240165677e+06 5.50198814617374431e-04 1.26903194231151278e-03 9.63539027126431247e-01 -1.47829666926301312e-01 9.63539027126431247e-01 -1.47829666926301312e-01 1.44218487874775322e-04 9.84629502436021277e-04
4.46683592150963470e+06 -1.04905723889831080e-03 -2.74176843024072098e-04 9.61660256016147241e-01 -1.50552341693242914e-01 9.61660256016147241e-01 -1.50552341693242914e-01 2.62008537586677854e-04 -8.15277975347879712e-04
4.57088189614875149e+06 5.37805001953103930e-05 -6.85320813383313290e-04 9.62107028651503438e-01 -1.54382179342653331e-01 9.62107028651503438e-01 -1.54382179342653331e-01 1.17565643213330935e-04 4.81453342399376118e-04
4.67735141287198104e+06 2.90943622898723971e-04 4.08246984292973320e-04 9.61325930114827032e-01 -1.57705617214435267e-01 9.61325930114827032e-01 -1.57705617214435267e-01 1.11560844738273359e-04 9.54549779495383671e-04
4.78630092322637979e+06 1.81100197081548574e-04 -5.58038613849940618e-05 9.61222778034283576e-01 -1.60385100915936940e-01 9.61222778034283576e-01 -1.60385100915936940e-01 -3.63939951671860484e-04 -9.10644041850559101e-04
4.89778819368446618e+06 5.56066100512335893e-04 3.81262828552918437e-04 9.60253264344887114e-01 -1.63206708788329546e-01 9.60253264344887114e-01 -1.63206708788329546e-01 7.45304734207220376e-05 5.97344541346736730e-04
5.01187233627272490e+06 -3.35954761419055318e-04 -1.21503873667060417e-03 9.59273334724334403e-01 -1.66769770360263941e-01 9.59273334724334403e-01 -1.66769770360263941e-01 6.10921178346562508e-04 1.20176844258792158e-03
5.12861383991364855e+06 -7.60123916307299812e-04 -6.76085007044615965e-05 9.58235422027167494e-01 -1.70239803203501738e-01 9.58235422027167494e-01 -1.70239803203501738e-01 4.57809885426862045e-05 -1.04652607142372294e-03
5.24807460249772295e+06 -4.67540173359088707e-04 -2.56976256522413026e-04 9.56901583582042581e-01 -1.74616003353007754e-01 9.56901583582042581e-01 -1.74616003353007754e-01 -1.09682658631330104e-03 1.10681209810752448e-03
5.37031796370253246e+06 -7.80028882788661067e-04 -6.91960817612158053e-05 9.55367837568780853e-01 -1.79299829839441455e-01 9.55367837568780853e-01 -1.79299829839441455e-01 -4.35982376253024845e-04 -1.04514654482110712e-03
5.49540873857624829e+06 -3.95970113690416665e-04 -4.17023138598300298e-04 9.55153868044935073e-01 -1.82129494866395292e-01 9.55153868044935073e-01 -1.82129494866395292e-01 2.62932726421835400e-04 7.04205717795645036e-04
5.62341325190349109e+06 -1.32629660462527842e-04 -3.48165812936061781e-04 9.54067457326036039e-01 -1.87307365511581558e-01 9.54067457326036039e-01 -1.87307365511581558e-01 -5.10448401363627598e-04 1.57332761352820959e-03
5.75439937337156665e+06 -8.00098564750847388e-04 5.76797813539593534e-04 9.53453547036463012e-01 -1.90639675983675067e-01 9.53453547036463012e-01 -1.90639675983675067e-01 -1.51359514236323580e-04 -5.35552070186027249e-05
5.88843655355588347e+06 1.14760469771750832e-03 5.80017918068159418e-04 9.53647978502979998e-01 -1.95392762032017414e-01 9.53647978502979998e-01 -1.95392762032017414e-01 1.04503452516517201e-03 -2.25905607869343958e-04
6.02559586074358039e+06 1.47024640170170503e-03 -3.11685459560783601e-04 9.50633348838814674e-01 -1.99965185926386790e-01 9.50633348838814674e-01 -1.99965185926386790e-01 4.75871717321792458e-04 -8.62384659817277965e-04
6.16595001861482207e+06 5.38145786992346256e-04 -2.11603346122132217e-04 9.50719588160952922e-01 -2.02969191314987946e-01 9.50719588160952922e-01 -2.02969191314987946e-01 1.50378360104772685e-03 -4.87158547956451928e-04
6.30957344480192941e+06 1.79454879403464227e-03 4.11259374323435665e-05 9.49920593980980277e-01 -2.07355268450132496e-01 9.49920593980980277e-01 -2.07355268450132496e-01 4.61844107339770473e-04 6.67753804147588567e-04
6.45654229034656286e+06 -7.93655301978448422e-04 3.49756692897711813e-04 9.47235514287025682e-01 -2.11708077506023801e-01 9.47235514287025682e-01 -2.11708077506023801e-01 4.95132463443131760e-04 2.97113983108222488e-04
6.60693448007596470e+06 -5.34803870720628949e-05 2.67485019182571111e-05 9.45838980012583819e-01 -2.17057009853288574e-01 9.45838980012583819e-01 -2.17057009853288574e-01 -8.76983681392669274e-05 -8.91620490912054474e-04
6.76082975391981844e+06 2.54563966659339239e-04 4.75762618728733087e-04 9.46144118174058524e-01 -2.21987402886140051e-01 9.46144118174058524e-01 -2.21987402886140051e-01 -7.61408427206009431e-05 -7.50061650571214630e-04
6.91830970918936282e+06 -1.90365332631676094e-04 1.80608717902084313e-04 9.44137432850943870e-01 -2.26436050227880770e-01 9.44137432850943870e-01 -2.26436050227880770e-01 1.22317733328948497e-04 1.36550656889957659e-03
7.07945784384137299e+06 -8.22459387096005526e-04 -1.57400731627115476e-04 9.43318995688734230e-01 -2.30670279932042588e-01 9.43318995688734230e-01 -2.30670279932042588e-01 1.54879456022275494e-03 6.19294660340282506e-04
7.24435960074990615e+06 5.75726623687219529e-04 -5.23659361091294989e-04 9.40246085507423279e-01 -2.35732631760166761e-01 9.40246085507423279e-01 -2.35732631760166761e-01 6.68276121587499627e-05 -6.71431907227694772e-04
7.41310241300917696e+06 -1.24848764745486614e-03 -2.88244321683110596e-04 9.38458222096043682e-01 -2.41908565667636605e-01 9.38458222096043682e-01 -2.41908565667636605e-01 4.66161068575895218e-04 1.00351667720479279e-04
7.58577575029183552e+06 5.49061935007075623e-05 -1.13589161027992619e-03 9.37686005892537033e-01 -2.45435242090199540e-01 9.37686005892537033e-01 -2.45435242090199540e-01 -1.47604798625206664e-03 3.49867673385703063e-04
7.76247116628691182e+06 -8.97270447306780625e-04 -1.52943225411332766e-03 9.36642727974191236e-01 -2.51667801854007112e-01 9.36642727974191236e-01 -2.51667801854007112e-01 2.25522734445320052e-05 9.69346408354043124e-04
7.94328234724282101e+06 4.87691611755580062e-04 -1.43045029063984058e-04 9.35894607010615887e-01 -2.57585218972383345e-01 9.35894607010615887e-01 -2.57585218972383345e-01 -2.39890587477980795e-04 -2.08137348059629590e-05
8.12830516164099518e+06 3.31609856192542011e-04 -6.22422704059649202e-04 9.32939624011864366e-01 -2.62769647299911147e-01 9.32939624011864366e-01 -2.62769647299911147e-01 -3.51106543212189161e-04 -8.04050061899770087e-04
8.31763771102670860e+06 -1.73093196247837321e-04 -4.34400904842350720e-04 9.31863339474695684e-01 -2.69104325659538068e-01 9.31863339474695684e-01 -2.69104325659538068e-01 -7.27202027531094410e-04 1.32615921087319622e-03
8.51138038202375919e+06 8.06835877087421242e-04 4.96851414324329677e-05 9.30299611607640076e-01 -2.74508731292651242e-01 9.30299611607640076e-01 -2.74508731292651242e-01 2.52669563596180802e-05 -8.86972266034016408e-04
8.70963589956081472e+06 1.80254422267117403e-04 -2.46346389048520277e-04 9.26248556857665273e-01 -2.81015409193558885e-01 9.26248556857665273e-01 -2.81015409193558885e-01 1.66914998785156377e-03 -8.57329666475136463e-04
8.91250938133745827e+06 6.92176715818592736e-04 6.07509554568643828e-04 9.25277879065248721e-01 -2.87173403590292586e-01 9.25277879065248721e-01 -2.87173403590292586e-01 4.06145188485656548e-05 7.22394249052125612e-04
9.12010839355909638e+06 3.18885266381674457e-04 2.63712113267022537e-04 9.22518570429692875e-01 -2.93933814282981265e-01 9.22518570429692875e-01 -2.93933814282981265e-01 2.00296314380777441e-04 -8.53860089502799608e-04
9.33254300796990469e+06 -6.53067513384934838e-04 -2.08382304148136348e-04 9.21063777247181137e-01 -2.99311198271191570e-01 9.21063777247181137e-01 -2.99311198271191570e-01 -4.79569202495030674e-04 -5.74432316801299049e-06
9.54992586021436937e+06 6.33227082913448663e-04 -2.67797877963299132e-04 9.18266217835842724e-01 -3.04646650774999639e-01 9.18266217835842724e-01 -3.04646650774999639e-01 1.90032176425579711e-04 -2.26572380849404692e-04
9.77237220955811068e+06 2.09366406104040913e-03 -2.79413245930577284e-04 9.16461318252525969e-01 -3.11015492503606938e-01 9.16461318252525969e-01 -3.11015492503606938e-01 1.89363491199040490e-04 1.41915889895155947e-03
1.00000000000000000e+07 3.13874528261944791e-05 6.34788024970244359e-04 9.12597010586718160e-01 -3.18463536435630079e-01 9.12597010586718160e-01 -3.18463536435630079e-01 7.66660119411616725e-04 8.89501503150714351e-04
1.02329299228075370e+07 1.13302490154547743e-03 2.74168934335959657e-04 9.10709934293129852e-01 -3.26359099114880202e-01 9.10709934293129852e-01 -3.26359099114880202e-01 1.18564237581746243e-03 5.85524169806770343e-04
1.04712854805089850e+07 -7.93923725450423564e-05 4.18483565160828440e-04 9.06632160783160890e-01 -3.32728286120248018e-01 9.06632160783160890e-01 -3.32728286120248018e-01 -4.61909223813151807e-04 -2.39517976258846080e-04
1.07151930523760710e+07 -7.47406444025327079e-04 -9.58166832381292569e-04 9.04797303681942999e-01 -3.38945466598389644e-01 9.04797303681942999e-01 -3.38945466598389644e-01 4.43342383027140493e-04 -1.40845443043484809e-03
1.09647819614318516e+07 -6.56883512001428483e-04 -7.22491988130728627e-04 9.01919296775987589e-01 -3.48417413713513424e-01 9.01919296775987589e-01 -3.48417413713513424e-01 1.40963217763459797e-04 3.87314077546266106e-04
1.12201845430196300e+07 -5.18329240704991194e-04 1.18506534614331877e-03 8.98191534978742268e-01 -3.54109445064518913e-01 8.98191534978742268e-01 -3.54109445064518913e-01 6.16475568125415103e-05 4.79935010989798391e-04
1.14815362149688415e+07 6.16858492115346163e-04 -8.61460022193119178e-04 8.95134921423617613e-01 -3.60358749343354601e-01 8.95134921423617613e-01 -3.60358749343354601e-01 -5.31314119584785612e-04 -4.52124182752897733e-08
1.17489755493953023e+07 -9.98811943842300949e-05 7.41090701703768354e-04 8.92356272542662587e-01 -3.67795487879575722e-01 8.92356272542662587e-01 -3.67795487879575722e-01 -3.83970899673638348e-04 -9.01390914962465779e-04
1.20226443461741302e+07 -2.36278155926770793e-04 -9.15916843733893425e-04 8.88434465683629049e-01 -3.75649848651468998e-01 8.88434465683629049e-01 -3.75649848651468998e-01 -7.67770599347384524e-04 -1.20847784253493571e-04
1.23026877081238106e+07 -1.25537693783610884e-04 1.28754212786537760e-04 8.84499601597169338e-01 -3.85695161603843484e-01 8.84499601597169338e-01 -3.85695161603843484e-01 1.11962521449708867e-03 4.35968659511430342e-04
1.25892541179416608e+07 -3.65802201964747964e-04 -8.08835834698995730e-04 8.81360981111927067e-01 -3.92402589894768672e-01 8.81360981111927067e-01 -3.92402589894768672e-01 2.68360346247797888e-04 1.74460433742488086e-04
1.28824955169313494e+07 -7.90568094145921484e-04 -3.81090609062006991e-04 8.76134674070228270e-01 -4.01414104936782923e-01 8.76134674070228270e-01 -4.01414104936782923e-01 -3.15005910050368489e-04 -7.05320353353880282e-07
1.31825673855640739e+07 4.68510651255868405e-04 7.25446975541665711e-04 8.72423590020300010e-01 -4.10045754879076629e-01 8.72423590020300010e-01 -4.10045754879076629e-01 -4.63971233189236401e-04 3.54809845276031716e-04
1.34896288259165324e+07 -2.05076575200980379e-03 4.84964579825586850e-04 8.68183362102635470e-01 -4.17912410955653568e-01 8.68183362102635470e-01 -4.17912410955653568e-01 2.20955937494422697e-04 -1.30156761125969846e-04
1.38038426460288670e+07 3.14441352994611128e-04 -9.07250660373818036e-05 8.64218999642835772e-01 -4.28049066212632501e-01 8.64218999642835772e-01 -4.28049066212632501e-01 -2.31821057625438413e-04 -8.33355041239919282e-05
1.41253754462275542e+07 -1.60624841427084772e-04 -3.70406298740885535e-04 8.59764373135339155e-01 -4.35539055006352094e-01 8.59764373135339155e-01 -4.35539055006352094e-01 -9.59620867154785617e-05 -1.92537459316470414e-04
1.44543977074592803e+07 -1.62849755713908467e-03 -1.12962145372497310e-03 8.54958276700754638e-01 -4.45581095456017318e-01 8.54958276700754638e-01 -4.45581095456017318e-01 -7.62035162240969565e-04 -1.21709733196857946e-03
1.47910838816820718e+07 9.72476090620938600e-04 -9.58146970904944330e-05 8.50288621941706291e-01 -4.53934528478058819e-01 8.50288621941706291e-01 -4.53934528478058819e-01 5.39126264691485758e-04 7.92442550245084983e-05
1.51356124843620714e+07 6.39306343193138046e-04 -9.47108407354095333e-04 8.45041884672672383e-01 -4.63536311454443850e-01 8.45041884672672383e-01 -4.63536311454443850e-01 -7.79319570272151005e-04 5.94551016924007246e-04
1.54881661891247965e+07 1.79500356009283657e-04 -1.07370638883341621e-03 8.38309758333581345e-01 -4.72521924278572758e-01 8.38309758333581345e-01 -4.72521924278572758e-01 -6.83849801910780012e-04 1.68982260506595627e-04
1.58489319246111419e+07 1.42256623135054473e-03 -5.49722095685103063e-04 8.31908270422213714e-01 -4.82014803910194023e-01 8.31908270422213714e-01 -4.82014803910194023e-01 -5.17069220839180810e-04 7.27062080485004077e-04
1.62181009735892992e+07 1.89302560634397248e-04 -1.58190153018942896e-03 8.26982236655491976e-01 -4.92622593565863909e-01 8.26982236655491976e-01 -4.92622593565863909e-01 -4.25004079325176567e-04 5.14587784225358207e-04
1.65958690743755959e+07 -4.23958097856900855e-04 8.48374982454878023e-04 8.20289953559969920e-01 -5.03056181769761745e-01 8.20289953559969920e-01 -5.03056181769761745e-01 -1.00806167995848598e-03 2.80861521714722781e-04
1.69824365246174596e+07 -5.46300527916449810e-04 -1.63353398561416190e-04 8.12756963887748651e-01 -5.11543844274419568e-01 8.12756963887748651e-01 -5.11543844274419568e-01 -3.07120707951925192e-04 1.20982151260701137e-04
1.73780082874937616e+07 -1.00597536133133534e-04 1.94845482602850364e-04 8.07795091802527843e-01 -5.21722848841214115e-01 8.07795091802527843e-01 -5.21722848841214115e-01 6.41601061869154980e-04 2.64815736447737596e-04
1.77827941003892273e+07 1.58379301694661274e-05 1.00002580495636402e-03 7.99187643399036474e-01 -5.32388482290681475e-01 7.99187643399036474e-01 -5.32388482290681475e-01 6.18259709035169028e-04 -2.13161885862722439e-04
1.81970085860998258e+07 3.02924494724340963e-04 3.25744291864237900e-04 7.92534947219284969e-01 -5.41403820771821587e-01 7.92534947219284969e-01 -5.41403820771821587e-01 9.76496842790108193e-04 -2.27436277127275632e-04
1.86208713666286543e+07 -7.12894385266720268e-04 6.32745300590128188e-04 7.82560968181129080e-01 -5.53072013304519494e-01 7.82560968181129080e-01 -5.53072013304519494e-01 -1.54166915117093744e-05 4.23549323112349329e-04
1.90546071796324812e+07 5.61876734556606119e-05 -9.21136480763326093e-04 7.76284796553530998e-01 -5.64308635430022854e-01 7.76284796553530998e-01 -5.64308635430022854e-01 -4.23432344904389833e-04 5.71809182443775636e-04
1.94984459975804538e+07 -1.64487377224930220e-04 1.45102383018192501e-04 7.68071432667925102e-01 -5.73449942187277628e-01 7.68071432667925102e-01 -5.73449942187277628e-01 4.33144241014819971e-04 -1.63517857327824388e-04
1.99526231496887878e+07 9.41144165416269536e-04 -8.64412351173800709e-04 7.57392272492484087e-01 -5.85441921296315337e-01 7.57392272492484087e-01 -5.85441921296315337e-01 -1.16577759518649471e-03 -8.09253092422038134e-04
2.04173794466953166e+07 1.03374853543051213e-03 4.58942540420208256e-04 7.50241930224979758e-01 -5.96802649292295873e-01 7.50241930224979758e-01 -5.96802649292295873e-01 5.61043181801192483e-04 -5.68408967154079760e-04
2.08929613085404076e+07 -2.01408397647360766e-04 1.00463360417055701e-04 7.39990806052479466e-01 -6.08844271631651224e-01 7.39990806052479466e-01 -6.08844271631651224e-01 1.41282577659074878e-04 1.12377020690763540e-03
2.13796208950223252e+07 -6.64530119415695088e-04 -8.33003939708128497e-04 7.29370664718713368e-01 -6.19191591767126015e-01 7.29370664718713368e-01 -6.19191591767126015e-01 -7.85291514230506294e-04 -2.26236848925150141e-04
2.18776162394955195e+07 8.23964542702636059e-05 -1.52120197614035487e-04 7.20627702160367201e-01 -6.31788055218059141e-01 7.20627702160367201e-01 -6.31788055218059141e-01 1.16761668438865578e-03 -1.60244944876528669e-04
2.23872113856833763e+07 2.62917423272589603e-04 -2.95580488251753141e-04 7.09818866193219100e-01 -6.41829275231818541e-01 7.09818866193219100e-01 -6.41829275231818541e-01 1.19369589830665480e-03 7.19014160362250738e-04
2.29086765276777484e+07 -5.49178317918388114e-04 1.89239192332744480e-05 6.97681990459879331e-01 -6.54926491630069885e-01 6.97681990459879331e-01 -6.54926491630069885e-01 -3.80375121889516454e-04 -8.89655011458656119e-04
2.34422881531992257e+07 -6.80406879179072281e-05 -8.95316978179481809e-04 6.88218974118800286e-01 -6.65193679346040789e-01 6.88218974118800286e-01 -6.65193679346040789e-01 -2.46667461837537507e-04 2.86544229012653201e-04
2.39883291901948974e+07 9.24268749169032807e-04 -5.22461274128272596e-04 6.74418741259872223e-01 -6.77042002397038156e-01 6.74418741259872223e-01 -6.77042002397038156e-01 3.47483713426057427e-04 -3.32986082515739697e-04
2.45470891568503343e+07 4.81763820592409793e-04 5.66087467860874543e-05 6.62614910936984658e-01 -6.88948279062310043e-01 6.62614910936984658e-01 -6.88948279062310043e-01 5.31070111784612189e-04 5.06871214555392868e-04
2.51188643150958233e+07 -4.87224459205373240e-04 6.20651486093091130e-05 6.50256817594375369e-01 -7.00510613006183003e-01 6.50256817594375369e-01 -7.00510613006183003e-01 6.93666340279716306e-04 -1.02866774152957779e-03
2.57039578276886456e+07 -4.96303176664126709e-04 -6.09157777695976772e-04 6.36061207190171674e-01 -7.12604099811890213e-01 6.36061207190171674e-01 -7.12604099811890213e-01 -7.58839264774962457e-04 -1.11024527961304273e-03
2.63026799189538136e+07 6.71046737424953741e-05 1.71741768931599838e-04 6.20822262530536517e-01 -7.22333649203651618e-01 6.20822262530536517e-01 -7.22333649203651618e-01 5.07961864235310836e-04 3.79605558709884762e-05
2.69153480392691381e+07 2.09612682898970915e-03 2.30803415151102452e-04 6.08090356998460813e-01 -7.35299532844569281e-01 6.08090356998460813e-01 -7.35299532844569281e-01 5.16739084736647495e-04 6.15852838996961923e-04
2.75422870333816335e+07 -6.38426570169794180e-04 9.71122200308002434e-04 5.92155060247866794e-01 -7.47330364061458252e-01 5.92155060247866794e-01 -7.47330364061458252e-01 8.37607647604844837e-04 -4.01721448609028016e-05
2.81838293126445487e+07 -6.24962414392473987e-05 7.15547417994355706e-05 5.76231914785485966e-01 -7.59546010715579700e-01 5.76231914785485966e-01 -7.59546010715579700e-01 -1.19808119845368180e-03 -2.91605380143807340e-04
2.88403150312660560e+07 -6.04873625845151657e-04 1.36598669052948409e-03 5.58488813519238958e-01 -7.70785100196342832e-01 5.58488813519238958e-01 -7.70785100196342832e-01 1.35373408731012169e-03 2.93595454122051389e-04
2.95120922666638382e+07 3.34201383594919562e-04 -2.67421754987727447e-04 5.43347001680117292e-01 -7.81640781426146458e-01 5.43347001680117292e-01 -7.81640781426146458e-01 -1.43329584324079637e-04 3.36061645271898489e-04
3.01995172040201910e+07 -1.03284632097316409e-03 -9.36933000190881635e-04 5.25363814181852185e-01 -7.92897280733662724e-01 5.25363814181852185e-01 -7.92897280733662724e-01 -4.50065585828491872e-04 -7.70068856051115682e-04
3.09029543251359202e+07 -6.85770777745943862e-04 -1.22905485167587461e-03 5.07032133224179504e-01 -8.05320248780656001e-01 5.07032133224179504e-01 -8.05320248780656001e-01 7.76532752623995947e-05 -4.91054282622041877e-05
3.16227766016837917e+07 -1.27627563860648524e-04 1.59578391927985437e-04 4.87530709966472409e-01 -8.16623326097136282e-01 4.87530709966472409e-01 -8.16623326097136282e-01 -6.97113830896810304e-04 3.05141814903737898e-04
3.23593656929628104e+07 4.46932589843200656e-06 4.56080008191061582e-04 4.69342804661922242e-01 -8.26153492313683735e-01 4.69342804661922242e-01 -8.26153492313683735e-01 -1.13441856538824869e-03 1.40985354465455060e-03
3.31131121482590772e+07 -4.64697844029155187e-04 -1.19348564124131611e-03 4.48062343563177590e-01 -8.38851641064450759e-01 4.48062343563177590e-01 -8.38851641064450759e-01 -1.12244709062234198e-04 1.19546314900118716e-03
3.38844156139202714e+07 -4.19147036922610128e-04 -4.22096177760036947e-04 4.28522378647056390e-01 -8.47386525930263868e-01 4.28522378647056390e-01 -8.47386525930263868e-01 2.82700668884880739e-04 1.06491330708920244e-04
3.46736850452531651e+07 -6.96771336281289707e-04 -3.09318446819221714e-05 4.04077089804905698e-01 -8.58712841771197222e-01 4.04077089804905698e-01 -8.58712841771197222e-01 -1.21728343299806670e-04 2.12287040367801491e-04
3.54813389233575314e+07 1.04614239039104774e-03 2.26828401986461795e-04 3.83046846451917111e-01 -8.68768181333272160e-01 3.83046846451917111e-01 -8.68768181333272160e-01 -1.63765292565930731e-03 5.02241270409507453e-04
3.63078054770101756e+07 -9.73646001784681772e-04 -6.99095146358705483e-04 3.59740016815320640e-01 -8.78523321229810583e-01 3.59740016815320640e-01 -8.78523321229810583e-01 7.54914455576551394e-04 -2.31621940238935697e-04
3.71535229097172767e+07 9.97547121671391246e-05 2.66750107229508590e-04 3.35728976717338978e-01 -8.85241745831927607e-01 3.35728976717338978e-01 -8.85241745831927607e-01 7.58722991589072656e-04 1.02819746117531734e-03
3.80189396320561245e+07 8.88305244657831145e-04 -2.28557827737417942e-04 3.10332172157957054e-01 -8.95511703333299547e-01 3.10332172157957054e-01 -8.95511703333299547e-01 3.09745141041130973e-04 -2.39452233460891973e-04
3.89045144994280487e+07 -6.76972163590922570e-04 -7.53325674660411089e-04 2.84443880513618796e-01 -9.04181757611429049e-01 2.84443880513618796e-01 -9.04181757611429049e-01 4.16019659755011151e-04 -4.07998550430555579e-05
3.98107170553496927e+07 -1.00652468964735936e-03 4.85131669756943239e-04 2.58919606623456311e-01 -9.09700471039510461e-01 2.58919606623456311e-01 -9.09700471039510461e-01 2.22172265199129421e-04 -6.28448343891488729e-04
4.07380277804113030e+07 6.09022309265053316e-04 -6.85813692033662757e-04 2.30774498870336853e-01 -9.18192709612910107e-01 2.30774498870336853e-01 -9.18192709612910107e-01 2.69277718371205353e-04 2.92426927871665334e-04
4.16869383470335528e+07 -8.86911210960742032e-05 5.31882987351849491e-04 2.04617948545655126e-01 -9.24834855157604774e-01 2.04617948545655126e-01 -9.24834855157604774e-01 -5.25205142686453199e-04 8.44328160435540921e-04
4.26579518801592588e+07 -7.84903116176936116e-04 3.57780323970157592e-04 1.75089813607197442e-01 -9.29313275844436237e-01 1.75089813607197442e-01 -9.29313275844436237e-01 -6.05150609821936483e-04 7.96904665839975684e-04
4.36515832240166515e+07 -9.15206673370564392e-04 8.64805466132822511e-05 1.45740296502050115e-01 -9.32308846030874272e-01 1.45740296502050115e-01 -9.32308846030874272e-01 3.04329123328715343e-04 5.42970822159122291e-04
4.46683592150963470e+07 -2.20010793184783216e-03 -1.44864920694825854e-04 1.14003018384102928e-01 -9.36878582909641211e-01 1.14003018384102928e-01 -9.36878582909641211e-01 -7.83500467123964309e-04 4.29924058303760080e-04
4.57088189614875168e+07 4.55622366218240231e-04 -1.26647414199619070e-04 8.44583764801880993e-02 -9.40874111358460441e-01 8.44583764801880993e-02 -9.40874111358460441e-01 1.45530728021966592e-03 9.32362025995246539e-05
4.67735141287198141e+07 4.99306512848723049e-04 2.90579794779615016e-04 5.06228455069329952e-02 -9.42545995352017441e-01 5.06228455069329952e-02 -9.42545995352017441e-01 -7.99930288984336481e-04 9.51022894876531969e-04
4.78630092322638035e+07 -6.73685864195056050e-04 -1.00737538246842349e-03 1.89592455367945494e-02 -9.42772645402333853e-01 1.89592455367945494e-02 -9.42772645402333853e-01 8.94787904092600884e-04 4.03588383622587810e-05
4.89778819368445650e+07 -1.35605830145440315e-03 -2.47297464123986098e-04 -1.44845997680880193e-02 -9.41771338877553044e-01 -1.44845997680880193e-02 -9.41771338877553044e-01 6.56093241395263650e-04 1.96975415870949579e-04
5.01187233627272472e+07 2.23424157961849310e-04 -1.28426266971374779e-06 -4.68729295661994977e-02 -9.41542135457239082e-01 -4.68729295661994977e-02 -9.41542135457239082e-01 3.78478093850226273e-04 -5.43554413312830487e-04
5.12861383991364837e+07 2.29751955864959019e-05 4.16715204818470842e-04 -8.36605317187925912e-02 -9.36211406336846519e-01 -8.36605317187925912e-02 -9.36211406336846519e-01 -3.84791076562123119e-04 -1.62765120069980457e-03
5.24807460249772295e+07 -7.77297702953037395e-04 -1.94815955974122628e-04 -1.19371319947721544e-01 -9.32971159419018314e-01 -1.19371319947721544e-01 -9.32971159419018314e-01 8.15736611184372383e-04 7.55756195280211088e-05
5.37031796370253265e+07 -1.66125828870975558e-04 -2.09265387417837411e-05 -1.55194495147987277e-01 -9.26618486231969518e-01 -1.55194495147987277e-01 -9.26618486231969518e-01 -2.65712135439340766e-04 -6.06190997940217707e-04
5.49540873857624829e+07 1.15356775101448528e-03 -1.30929386140897773e-04 -1.92425799094151390e-01 -9.20015130743254694e-01 -1.92425799094151390e-01 -9.20015130743254694e-01 3.77816956924392051e-04 -5.78146871246799183e-04
5.62341325190349072e+07 5.41760908578391306e-04 2.96499434038729147e-04 -2.30751686778474158e-01 -9.09974231332282502e-01 -2.30751686778474158e-01 -9.09974231332282502e-01 -1.28783540780022667e-04 -3.56845702782254595e-04
5.75439937337156609e+07 1.30144941175557938e-03 1.04156767644016058e-04 -2.67408727430688609e-01 -8.99533706808498534e-01 -2.67408727430688609e-01 -8.99533706808498534e-01 9.91792746143922710e-04 -2.41687593911453876e-04
5.88843655355588421e+07 6.25146627865145977e-04 -7.83773639246305960e-06 -3.06709466354688098e-01 -8.85586474438301630e-01 -3.06709466354688098e-01 -8.85586474438301630e-01 5.00186598330575093e-04 -3.12570645944563053e-04
6.02559586074358076e+07 -7.69535857554308933e-04 -4.07490946489049289e-04 -3.43471610168727848e-01 -8.71284612539216186e-01 -3.43471610168727848e-01 -8.71284612539216186e-01 -2.93874532779228625e-04 9.37249238057691315e-04
6.16595001861482188e+07 1.53878784357422104e-05 5.09759320356095312e-04 -3.82105357758466657e-01 -8.55331848588926524e-01 -3.82105357758466657e-01 -8.55331848588926524e-01 1.71592203882111504e-04 1.37339513345479807e-04
6.30957344480192959e+07 -3.17005348431163294e-04 4.11462602288509619e-04 -4.21461217939878396e-01 -8.36001993333301940e-01 -4.21461217939878396e-01 -8.36001993333301940e-01 -7.14145643103517068e-04 -1.51021367301116730e-04
6.45654229034656286e+07 6.47879463754291122e-04 4.34849974254561801e-04 -4.57669761234719086e-01 -8.14852869762352605e-01 -4.57669761234719086e-01 -8.14852869762352605e-01 1.64453073297796115e-04 5.57559362879571775e-04
6.60693448007596433e+07 5.95594186543646812e-04 -1.63905586495000349e-03 -4.96382957068975061e-01 -7.91670491727322179e-01 -4.96382957068975061e-01 -7.91670491727322179e-01 -9.65783187281261794e-04 -5.14691150442288356e-04
6.76082975391981900e+07 -1.32416445239425017e-03 -2.44878472313802458e-04 -5.34952034325075432e-01 -7.67064390154116094e-01 -5.34952034325075432e-01 -7.67064390154116094e-01 -1.33806626879058328e-03 -1.12344849427148917e-03
6.91830970918936282e+07 -1.92676234151005737e-04 9.19181424901869502e-05 -5.73303921829201757e-01 -7.36427194643106908e-01 -5.73303921829201757e-01 -7.36427194643106908e-01 -4.41260531555086961e-04 2.87838216663211736e-04
7.07945784384137392e+07 -5.31169327583844554e-04 7.91333727300119836e-04 -6.08564338323432819e-01 -7.07667367600521069e-01 -6.08564338323432819e-01 -7.07667367600521069e-01 -4.57670268890186674e-04 6.49616504078717022e-04
7.24435960074990541e+07 -8.11584094413171577e-04 -3.62832242047061103e-04 -6.44717253067660701e-01 -6.73325824169806464e-01 -6.44717253067660701e-01 -6.73325824169806464e-01 2.09811590684847327e-03 1.37751262449155673e-04
7.41310241300917715e+07 3.48444642942124453e-04 -3.33142015563479897e-04 -6.80894819215688840e-01 -6.37223925584145867e-01 -6.80894819215688840e-01 -6.37223925584145867e-01 6.45687011668919587e-05 8.85861893685230007e-05
7.58577575029183626e+07 1.81804030411723784e-03 -8.85002830782636771e-04 -7.12903142078469054e-01 -5.98536265309143056e-01 -7.12903142078469054e-01 -5.98536265309143056e-01 9.05567540661679623e-04 -3.00001363710549488e-05
7.76247116628692746e+07 7.84969325168374701e-04 -2.02990409822040812e-04 -7.44194014991259700e-01 -5.57711841113402884e-01 -7.44194014991259700e-01 -5.57711841113402884e-01 7.43024091910400196e-04 -1.97107055744042987e-03
7.94328234724282175e+07 1.99863473348874170e-04 4.28837813449623254e-05 -7.75443334784457705e-01 -5.14613110675992136e-01 -7.75443334784457705e-01 -5.14613110675992136e-01 -1.96964020611210729e-04 2.58967414719421323e-04
8.12830516164099425e+07 8.50447171543542200e-05 -3.69478367798988709e-04 -8.03301596680110475e-01 -4.66140160435157103e-01 -8.03301596680110475e-01 -4.66140160435157103e-01 -9.02036671658458717e-04 -5.04006356610349417e-04
8.31763771102670878e+07 -1.98313667615398142e-04 1.18172880395582330e-03 -8.29666021650059315e-01 -4.16859241893782373e-01 -8.29666021650059315e-01 -4.16859241893782373e-01 7.62679396806717008e-05 -9.68875284743205044e-04
8.51138038202375919e+07 -2.18980986855024233e-04 2.54786582158195250e-04 -8.52562891648379284e-01 -3.64067187047787288e-01 -8.52562891648379284e-01 -3.64067187047787288e-01 -7.35323317815094114e-05 4.23805344607278069e-04
8.70963589956079572e+07 -2.65475463379335108e-04 -1.13483208977984491e-03 -8.74672664342732165e-01 -3.10650702815885360e-01 -8.74672664342732165e-01 -3.10650702815885360e-01 -5.49704207049867737e-04 4.21967597627193047e-04
8.91250938133745939e+07 1.62360496746797868e-04 6.80233984788655927e-04 -8.91245098238184097e-01 -2.53722230938343285e-01 -8.91245098238184097e-01 -2.53722230938343285e-01 -1.44158288513738576e-03 2.90567611809206092e-04
9.12010839355909675e+07 6.53581223979880083e-04 3.63655321474764615e-04 -9.05912645913679593e-01 -1.93265692957423491e-01 -9.05912645913679593e-01 -1.93265692957423491e-01 -6.37756543144513371e-04 8.67363069048006146e-04
9.33254300796990544e+07 7.88219520500024534e-04 1.43828052626693211e-04 -9.14917597514000036e-01 -1.31730694029652901e-01 -9.14917597514000036e-01 -1.31730694029652901e-01 -5.03042411453796475e-04 -6.69275200835362763e-04
9.54992586021436900e+07 -2.51459809330439031e-04 -4.00980723454904923e-04 -9.22847443365274245e-01 -6.86297768710357609e-02 -9.22847443365274245e-01 -6.86297768710357609e-02 5.75745357582157255e-04 -8.42925423321284396e-04
9.77237220955811143e+07 6.39703677520241445e-04 -8.81475986625625870e-04 -9.24130415551581152e-01 -3.68762480972043135e-03 -9.24130415551581152e-01 -3.68762480972043135e-03 9.84069531121706904e-04 4.83215803272849117e-04
1.00000000000000000e+08 6.49536302190902113e-04 -3.08027832232622061e-04 -9.21025143208499597e-01 6.43135084507665683e-02 -9.21025143208499597e-01 6.43135084507665683e-02 5.10237508277655940e-04 5.66770309482450053e-04
1.02329299228075355e+08 -1.17002997162240770e-03 -9.52282308812790051e-04 -9.13211081313236250e-01 1.30706463605203521e-01 -9.13211081313236250e-01 1.30706463605203521e-01 1.77948077081862551e-04 -6.35913047400952000e-05
1.04712854805089846e+08 -7.37031118469418955e-06 -9.89723831591734354e-04 -8.98337029893434225e-01 1.99615967517248361e-01 -8.98337029893434225e-01 1.99615967517248361e-01 2.19579924462287801e-04 -2.96639861685345002e-04
1.07151930523760915e+08 2.59127044373115318e-04 -5.70420286869170430e-04 -8.81882870619733250e-01 2.68571225173629580e-01 -8.81882870619733250e-01 2.68571225173629580e-01 -1.32573707305570375e-04 -5.60954235951140147e-04
1.09647819614318281e+08 -5.54033686283652194e-04 3.10833997027881910e-04 -8.54583454315215318e-01 3.37500559907817743e-01 -8.54583454315215318e-01 3.37500559907817743e-01 -2.93894018703872275e-04 -2.48114950399554916e-04
1.12201845430196524e+08 8.41864734039994019e-05 -9.23697533338623715e-04 -8.24607393526931021e-01 4.05002336504299232e-01 -8.24607393526931021e-01 4.05002336504299232e-01 4.64332698867035828e-04 1.44887269245520746e-03
1.14815362149688408e+08 -9.97947263820785860e-04 -1.30537833509670391e-03 -7.87979758415790488e-01 4.71214383016180294e-01 -7.87979758415790488e-01 4.71214383016180294e-01 5.02266841942406546e-04 -2.18257401907405923e-04
1.17489755493953034e+08 -1.28444131704858085e-04 -1.08348609288778827e-04 -7.44675650264600031e-01 5.36586773459660105e-01 -7.44675650264600031e-01 5.36586773459660105e-01 7.40560292139328243e-05 -1.39089355231031015e-04
1.20226443461741313e+08 -9.79610414263925580e-04 5.73007845960562937e-04 -6.95508144940182982e-01 5.98379144393380913e-01 -6.95508144940182982e-01 5.98379144393380913e-01 1.46485499162441579e-05 4.67800043181931650e-04
1.23026877081238106e+08 -4.14676495116194949e-04 -1.32426744253790396e-03 -6.38358788393930787e-01 6.57455638894712591e-01 -6.38358788393930787e-01 6.57455638894712591e-01 7.08499205304465181e-04 3.61925443661787946e-04
1.25892541179416612e+08 1.93337084472637431e-04 -2.25180584209104957e-04 -5.76226873646112581e-01 7.11932326348878819e-01 -5.76226873646112581e-01 7.11932326348878819e-01 9.63674577040274372e-04 6.95821504768330437e-04
1.28824955169313222e+08 9.72460851928007275e-05 -3.36608916919411613e-04 -5.06686130156876247e-01 7.61740097611973699e-01 -5.06686130156876247e-01 7.61740097611973699e-01 -5.39837207509613593e-04 -1.68007602350750645e-03
1.31825673855641007e+08 -1.53900429190922873e-04 7.03613729225318219e-04 -4.31206922865887965e-01 8.05132699419712550e-01 -4.31206922865887965e-01 8.05132699419712550e-01 5.25895353425680505e-04 -7.00205006866346218e-04
1.34896288259165049e+08 -1.32277776453985831e-04 -1.01881924531859315e-03 -3.51250512533649473e-01 8.42105505730747050e-01 -3.51250512533649473e-01 8.42105505730747050e-01 1.40696392406476476e-04 -1.42130539461871996e-03
1.38038426460288674e+08 -6.65519763453838935e-04 9.29138418673234679e-04 -2.65580353880480291e-01 8.72818389150788798e-01 -2.65580353880480291e-01 8.72818389150788798e-01 -3.61730184887159396e-04 -1.12983617155833931e-03
1.41253754462275535e+08 -9.79884485457403753e-04 -9.66821523421933595e-04 -1.74994694086035713e-01 8.94683841694307147e-01 -1.74994694086035713e-01 8.94683841694307147e-01 -1.01680081738567563e-04 1.32918145695255091e-03
1.44543977074592799e+08 -1.03506719212126961e-03 4.61056125971145731e-04 -8.15249805776226688e-02 9.06674437467161587e-01 -8.15249805776226688e-02 9.06674437467161587e-01 -6.15815844095615478e-05 1.12439615540239619e-03
1.47910838816820711e+08 -2.04428326399885190e-03 -6.38225635991312453e-05 1.62081112676337909e-02 9.09104184900976775e-01 1.62081112676337909e-02 9.09104184900976775e-01 1.88601981423308770e-04 -5.11010129985896831e-04
1.51356124843620718e+08 4.58840444117894985e-04 2.03976956317263172e-04 1.14559971244321004e-01 9.00832469346723341e-01 1.14559971244321004e-01 9.00832469346723341e-01 -1.00603293143238480e-03 6.98472232780361938e-04
1.54881661891247958e+08 4.44266432360775944e-04 5.39682320323513470e-04 2.13584282828539501e-01 8.82452212217710530e-01 2.13584282828539501e-01 8.82452212217710530e-01 3.82507215988735065e-04 8.87418563940716235e-04
1.58489319246111095e+08 -4.77795183824107888e-04 -4.48859981048585976e-04 3.12751448010380240e-01 8.50260505368491182e-01 3.12751448010380240e-01 8.50260505368491182e-01 2.08127782531472111e-04 -8.95878379668967398e-04
1.62181009735893309e+08 7.93546681762875112e-04 -7.89938192273823177e-04 4.10121329334958207e-01 8.07449994128070281e-01 4.10121329334958207e-01 8.07449994128070281e-01 -1.73763941102507159e-04 1.31672852188570704e-03
1.65958690743756294e+08 -1.19396077191702464e-03 1.92123729579852490e-03 5.03827225468189144e-01 7.50670099223211928e-01 5.03827225468189144e-01 7.50670099223211928e-01 5.15200542720892926e-05 -7.28675165120714436e-04
1.69824365246174604e+08 -1.92109810386625792e-04 -8.11890079285730522e-05 5.91685698646320590e-01 6.83793243004033435e-01 5.91685698646320590e-01 6.83793243004033435e-01 -1.10833935362368574e-03 -2.24078196418817576e-04
1.73780082874937624e+08 -3.56815622259541493e-04 -9.60335843553021773e-05 6.70977967802653286e-01 6.03879252214837292e-01 6.70977967802653286e-01 6.03879252214837292e-01 -2.08983957012835909e-04 1.09406069016853853e-04
1.77827941003892273e+08 -1.72291363527186676e-03 -4.99043787399062089e-04 7.42244732493606008e-01 5.12401960358395803e-01 7.42244732493606008e-01 5.12401960358395803e-01 -2.15667535697808419e-05 -2.16346235617554566e-04
1.81970085860998243e+08 7.14718935404599302e-04 1.30843489994359521e-04 8.03363655493846252e-01 4.11324920636288616e-01 8.03363655493846252e-01 4.11324920636288616e-01 -1.32860844211138114e-04 -7.82742055574037893e-04
1.86208713666286558e+08 2.71863226327163292e-04 1.29465721282979139e-03 8.49036206887414879e-01 3.00165290870274271e-01 8.49036206887414879e-01 3.00165290870274271e-01 1.20057612902767702e-04 3.20877621579552543e-04
1.90546071796325207e+08 -9.77988524458005943e-05 2.64574699164861970e-04 8.81266540901897488e-01 1.80479566988425377e-01 8.81266540901897488e-01 1.80479566988425377e-01 7.97732227630417552e-04 -2.10819996161357832e-04
1.94984459975804150e+08 -6.00379422627952985e-04 -8.15061743597026355e-04 8.97998614332826239e-01 5.54102094986365368e-02 8.97998614332826239e-01 5.54102094986365368e-02 3.58006311941462204e-04 9.36893441553740785e-04
1.99526231496888280e+08 2.14238169435833153e-04 -1.34713792002227732e-03 8.92784592038591396e-01 -7.32562758334803638e-02 8.92784592038591396e-01 -7.32562758334803638e-02 -7.51393195501820035e-06 4.41636193484490878e-04
2.04173794466953158e+08 -6.90063186625957726e-04 -6.94378599698366756e-04 8.73380487804113592e-01 -2.02957795963451149e-01 8.73380487804113592e-01 -2.02957795963451149e-01 6.75689902571980088e-04 -1.18873031310877243e-04
2.08929613085404098e+08 8.13088310501521635e-04 -3.87571157311690712e-04 8.31522629753146281e-01 -3.32081286597990355e-01 8.31522629753146281e-01 -3.32081286597990355e-01 -5.27473537614241749e-05 -1.08113889341968842e-04
2.13796208950223237e+08 3.09091918199652974e-04 -5.79467697663682535e-04 7.68530302440951552e-01 -4.55043328799489111e-01 7.68530302440951552e-01 -4.55043328799489111e-01 -3.06716216101137861e-04 -2.42981764016509235e-04
2.18776162394955188e+08 -3.83803659943113338e-04 2.98652609908093376e-04 6.88642612251652020e-01 -5.69705752325556758e-01 6.88642612251652020e-01 -5.69705752325556758e-01 -3.23413230758826966e-04 -2.81970394911952680e-04
2.23872113856833786e+08 5.26012517106600234e-04 -9.75819178222455731e-04 5.87083689050125090e-01 -6.71145394300409204e-01 5.87083689050125090e-01 -6.71145394300409204e-01 6.04776721844765830e-04 6.89736114946172410e-04
2.29086765276776999e+08 1.56860018110817974e-03 1.30100906209474785e-03 4.69441664343867859e-01 -7.57989336496033173e-01 4.69441664343867859e-01 -7.57989336496033173e-01 6.69709092437755578e-04 1.12129035855995781e-04
2.34422881531992733e+08 8.09443760862819223e-04 -2.80635243681168992e-04 3.33612077567355614e-01 -8.25252475028463883e-01 3.33612077567355614e-01 -8.25252475028463883e-01 -5.44916011949017078e-04 3.17425373226220035e-04
2.39883291901948482e+08 -5.98167402851540247e-04 -8.11095766053566568e-04 1.86971198743128092e-01 -8.68362083051618217e-01 1.86971198743128092e-01 -8.68362083051618217e-01 1.04185199155240106e-03 -1.62978936896158500e-03
2.45470891568503350e+08 -5.15749753600984158e-04 7.36154533380375931e-04 3.13684758620193793e-02 -8.87766198054254163e-01 3.13684758620193793e-02 -8.87766198054254163e-01 -8.81908426358869691e-04 7.86843456524932293e-04
2.51188643150958210e+08 -8.60087872362532845e-04 3.03814347788825769e-05 -1.28335437213774883e-01 -8.77454734042098616e-01 -1.28335437213774883e-01 -8.77454734042098616e-01 -4.85588030369121565e-04 4.92311182453807864e-04
2.57039578276886463e+08 -5.05882472418325846e-04 -3.01005936629276852e-05 -2.86440406860845043e-01 -8.37011760553778350e-01 -2.86440406860845043e-01 -8.37011760553778350e-01 4.87474292919628442e-05 9.22959254484746966e-04
2.63026799189538151e+08 -3.14517735457872403e-05 7.04141996938810835e-04 -4.39972420657496699e-01 -7.68189349621391848e-01 -4.39972420657496699e-01 -7.68189349621391848e-01 2.93689971520479326e-04 -1.82712071926041371e-04
2.69153480392691374e+08 -5.00509387031902188e-04 -1.03407879881268843e-03 -5.78583273896390304e-01 -6.67023675902921442e-01 -5.78583273896390304e-01 -6.67023675902921442e-01 7.68414593163464993e-04 -5.81448449838627428e-04
2.75422870333816350e+08 -2.26726327749925111e-04 5.11494630443726011e-04 -6.99559213864724860e-01 -5.40487326608172447e-01 -6.99559213864724860e-01 -5.40487326608172447e-01 -4.63091270379555118e-04 -8.91981644414214939e-04
2.81838293126444936e+08 5.43112850984536853e-04 -1.02141854888346717e-03 -7.90501425743488695e-01 -3.88825089572800653e-01 -7.90501425743488695e-01 -3.88825089572800653e-01 2.57085820102835410e-04 1.76653593209149195e-03
2.88403150312661171e+08 1.00933546152705300e-03 4.28623083099196299e-04 -8.53802674729840505e-01 -2.16264853981999516e-01 -8.53802674729840505e-01 -2.16264853981999516e-01 9.04293615752676735e-04 4.62516734994899851e-04
2.95120922666639030e+08 1.48329617814849134e-04 7.85447521446867121e-04 -8.77769579955217871e-01 -3.10694913756141521e-02 -8.77769579955217871e-01 -3.10694913756141521e-02 -2.02261793654128505e-03 4.72037703645816981e-04
3.01995172040201902e+08 6.31081214232635346e-04 -9.13982730460327863e-05 -8.62992103353027784e-01 1.57755308335072092e-01 -8.62992103353027784e-01 1.57755308335072092e-01 1.34938677155166452e-03 -1.62158668725825177e-04
3.09029543251359224e+08 1.33075652449311425e-04 9.23437399072068538e-05 -8.06501480161411655e-01 3.44636417068530543e-01 -8.06501480161411655e-01 3.44636417068530543e-01 -5.67980695181159322e-04 -1.20756145448890702e-03
3.16227766016837955e+08 2.86810163602401076e-04 -1.74724010943934794e-04 -7.06110695317799242e-01 5.18003774964210573e-01 -7.06110695317799242e-01 5.18003774964210573e-01 -4.48402974602935933e-04 -7.32723546525654388e-04
3.23593656929628074e+08 -7.55199384243204438e-04 -2.81247863049971319e-04 -5.66173744923095579e-01 6.67298466297649329e-01 -5.66173744923095579e-01 6.67298466297649329e-01 -1.68768407662425539e-04 7.64028588696666756e-04
3.31131121482590795e+08 -4.84486215271737498e-05 -3.75389771964547089e-04 -3.94154585700730642e-01 7.78738546418089816e-01 -3.94154585700730642e-01 7.78738546418089816e-01 9.88799606094579748e-04 3.12373851228710199e-04
3.38844156139203429e+08 7.88748818369763914e-04 -1.17364461085032101e-03 -1.94614868316096534e-01 8.48501624686725298e-01 -1.94614868316096534e-01 8.48501624686725298e-01 -5.41506643721531526e-05 1.13107373434851821e-03
3.46736850452530980e+08 -6.52030959151557931e-04 -3.66558326285175049e-04 2.30993793663029877e-02 8.69411144854172591e-01 2.30993793663029877e-02 8.69411144854172591e-01 3.13444098122015249e-04 -5.48217713447375870e-04
3.54813389233576059e+08 -1.98142863655537414e-04 -7.14339627968012258e-04 2.40091440105886761e-01 8.35758945803280473e-01 2.40091440105886761e-01 8.35758945803280473e-01 3.84785376456100027e-04 5.38498200826613362e-04
3.63078054770101786e+08 -1.73969627036019625e-04 -7.68500367018545632e-04 4.48179635278663002e-01 7.42982108521481832e-01 4.48179635278663002e-01 7.42982108521481832e-01 -6.54922666239046627e-04 -8.03084443395594462e-04
3.71535229097172797e+08 -8.73032671776217809e-04 -5.01966677694379521e-04 6.27585920238202699e-01 5.98085202154153173e-01 6.27585920238202699e-01 5.98085202154153173e-01 -3.01010246086219049e-04 1.13994679761284974e-04
3.80189396320561230e+08 1.00399959519249511e-03 1.28789707086747495e-03 7.64285708291016719e-01 4.07693520421365030e-01 7.64285708291016719e-01 4.07693520421365030e-01 -9.60316083055856584e-04 -7.84313801189379729e-04
3.89045144994280457e+08 -4.30984554686915248e-04 2.53955361210221527e-05 8.44849564384737794e-01 1.78529087084673077e-01 8.44849564384737794e-01 1.78529087084673077e-01 -1.55875861589557113e-04 -5.51149714053434997e-04
3.98107170553496897e+08 2.14166947021277433e-04 2.40691792381484798e-04 8.59263118231401890e-01 -6.55848347485131766e-02 8.59263118231401890e-01 -6.55848347485131766e-02 -6.00537656932327655e-05 6.42133667237682125e-04
4.07380277804112196e+08 7.08156877648048787e-04 -2.78310254358585447e-04 8.03547348354860413e-01 -3.12289223332972432e-01 8.03547348354860413e-01 -3.12289223332972432e-01 -5.58645642260924757e-04 -8.68131671433488628e-04
4.16869383470336378e+08 -1.64029487909989020e-04 4.85076082428465124e-04 6.73714921746775608e-01 -5.33880820432244607e-01 6.73714921746775608e-01 -5.33880820432244607e-01 -9.54490615476526736e-04 -1.08597273172845944e-03
4.26579518801591694e+08 6.63260248868335379e-04 4.96712733584688503e-04 4.80888633754747052e-01 -7.11275271982083956e-01 4.80888633754747052e-01 -7.11275271982083956e-01 3.68676191063314440e-04 -1.09105455996365416e-03
4.36515832240166545e+08 -7.79799194570472356e-05 1.17227876062533584e-03 2.37786365432014979e-01 -8.23282164911906644e-01 2.37786365432014979e-01 -8.23282164911906644e-01 6.81237044621167123e-04 6.09503523328493017e-04
4.46683592150963485e+08 8.20263894353371855e-04 5.74476849951754032e-04 -3.48277823139118009e-02 -8.53207987924449851e-01 -3.48277823139118009e-02 -8.53207987924449851e-01 2.47045123855540181e-04 9.12987222759856492e-05
4.57088189614875197e+08 -2.74912816225237016e-04 4.60782411956500021e-05 -3.08316150323941329e-01 -7.97791068081566634e-01 -3.08316150323941329e-01 -7.97791068081566634e-01 6.94006240454877305e-04 -1.57284137066541411e-03
4.67735141287198126e+08 3.79985257879038139e-05 1.15908230212251120e-04 -5.52717941203551888e-01 -6.48733353195716789e-01 -5.52717941203551888e-01 -6.48733353195716789e-01 4.26533126007248408e-04 -5.96811580989124271e-05
4.78630092322638035e+08 4.70581081019678027e-04 9.10522364777540538e-05 -7.38390512231943741e-01 -4.23626788317191472e-01 -7.38390512231943741e-01 -4.23626788317191472e-01 -4.57992400384525016e-04 -8.48394993766501417e-04
4.89778819368445635e+08 5.03671929871030784e-04 2.71143038866854128e-04 -8.36947388971598261e-01 -1.42418932663200937e-01 -8.36947388971598261e-01 -1.42418932663200937e-01 -1.48200689248948088e-04 -1.10027610634504965e-04
5.01187233627271473e+08 8.45597716142485172e-04 1.10028193550578942e-03 -8.32708852475864347e-01 1.60875043075320384e-01 -8.32708852475864347e-01 1.60875043075320384e-01 -1.36568083747147626e-03 3.44244501558955127e-04
5.12861383991365850e+08 -5.62781568918805449e-04 6.95974339350147837e-05 -7.18610382115970503e-01 4.47451871720242422e-01 -7.18610382115970503e-01 4.47451871720242422e-01 8.10067380182436458e-04 3.47207075491497532e-04
5.24807460249773383e+08 3.57239054395595368e-04 -5.38582134456845629e-04 -5.00811666159451940e-01 6.81126413237565509e-01 -5.00811666159451940e-01 6.81126413237565509e-01 -1.63878267265181237e-03 2.48814830787595219e-04
5.37031796370253205e+08 -1.04457245050952651e-03 -7.29517508714815114e-06 -2.07685092609949967e-01 8.17317295919040121e-01 -2.07685092609949967e-01 8.17317295919040121e-01 -1.25879688339742592e-03 -5.81989117112426826e-05
5.49540873857624769e+08 6.65949405736967343e-04 1.13716577495061918e-03 1.22541504570993151e-01 8.33125330580855139e-01 1.22541504570993151e-01 8.33125330580855139e-01 -1.01195568154449793e-04 2.59523783778030273e-04
5.62341325190349102e+08 -4.48377375041004241e-05 2.35999772980679954e-04 4.38672718878251877e-01 7.16342825266178429e-01 4.38672718878251877e-01 7.16342825266178429e-01 -7.37621921301556791e-04 -7.65842832794916121e-04
5.75439937337156653e+08 -1.34255026158382001e-03 -6.91975604073779009e-04 6.88817402696517922e-01 4.80025955838409624e-01 6.88817402696517922e-01 4.80025955838409624e-01 2.87268226243598916e-04 -6.07103751089902192e-04
5.88843655355588436e+08 -1.68010264800262405e-04 -6.73902938764297946e-04 8.22788713775454372e-01 1.53733089906467751e-01 8.22788713775454372e-01 1.53733089906467751e-01 -6.64743210958329772e-04 -6.33597801296736170e-04
6.02559586074359298e+08 1.77261563638563647e-04 1.78712280151420270e-04 8.08137313811726044e-01 -2.05071044403054986e-01 8.08137313811726044e-01 -2.05071044403054986e-01 -7.80961671219131321e-04 7.54092095561578551e-04
6.16595001861480951e+08 -4.65569655724866862e-04 2.63162013044968425e-04 6.42032854884674542e-01 -5.30571460124501071e-01 6.42032854884674542e-01 -5.30571460124501071e-01 1.54086346421874830e-04 -2.08471636222149078e-04
6.30957344480194330e+08 -1.36051498571305405e-04 3.55923592604126971e-04 3.44167470577592505e-01 -7.58583779476928122e-01 3.44167470577592505e-01 -7.58583779476928122e-01 8.80894751292717938e-04 -5.20078065943782109e-04
6.45654229034656286e+08 9.70222975795933932e-04 1.07212654842890110e-03 -3.07123817201329745e-02 -8.28623349619213356e-01 -3.07123817201329745e-02 -8.28623349619213356e-01 8.82894660611340540e-04 -1.16708783726001460e-03
6.60693448007596374e+08 1.22304143452863965e-03 1.03068237583652054e-03 -4.05876550477098252e-01 -7.22882853711743212e-01 -4.05876550477098252e-01 -7.22882853711743212e-01 -9.88749208152454179e-04 -1.69915058780809296e-04
6.76082975391981840e+08 7.10839868590199876e-04 5.55060384824843231e-04 -6.95720842445781806e-01 -4.48116654259826996e-01 -6.95720842445781806e-01 -4.48116654259826996e-01 1.31652980915833873e-03 -6.35204277733568455e-05
6.91830970918936253e+08 1.21979138329632439e-03 -1.91698185822075564e-03 -8.23516175249196514e-01 -6.29155087641938560e-02 -8.23516175249196514e-01 -6.29155087641938560e-02 -7.77663628709052103e-04 -3.57297236939148007e-04
7.07945784384137273e+08 -4.86953670522450102e-04 -3.88383594464678016e-04 -7.48239262893684365e-01 3.45048723163753401e-01 -7.48239262893684365e-01 3.45048723163753401e-01 9.05990886765535531e-04 1.05484821686586722e-03
7.24435960074989080e+08 -8.73579602321475010e-04 9.97287627796283839e-04 -4.76206212866760514e-01 6.69268833815803488e-01 -4.76206212866760514e-01 6.69268833815803488e-01 -1.46346838731876289e-03 9.09174297845099393e-05
7.41310241300919175e+08 8.58214165940166169e-04 -5.96180597410109745e-04 -7.09047469234878602e-02 8.17290108293069584e-01 -7.09047469234878602e-02 8.17290108293069584e-01 1.41240097307803901e-04 -3.64460576382615847e-05
7.58577575029182076e+08 -7.50424731744861559e-05 9.10839762519954389e-04 3.62706012849488502e-01 7.34799703991770303e-01 3.62706012849488502e-01 7.34799703991770303e-01 2.62557752153906934e-04 -1.62150787650813100e-05
7.76247116628692746e+08 1.19355021125173858e-03 -3.44396784253735752e-04 6.92781339385811878e-01 4.29917502308535815e-01 6.92781339385811878e-01 4.29917502308535815e-01 -6.39982382631456453e-04 -1.46285361211263344e-03
7.94328234724282146e+08 -9.51783606767971904e-04 -3.25272236272630623e-04 8.15408867973786311e-01 -1.17294604367536789e-02 8.15408867973786311e-01 -1.17294604367536789e-02 -1.19329794815083048e-03 -7.52380939489925502e-04
8.12830516164099455e+08 1.71899337196797057e-03 -2.94821867172351086e-04 6.71946103948751650e-01 -4.57076654397288951e-01 6.71946103948751650e-01 -4.57076654397288951e-01 8.64015247099795473e-04 -3.60314534614942247e-04
8.31763771102670908e+08 -6.83298822503198840e-04 9.71557496176012557e-06 2.97569919480447365e-01 -7.55073054608587313e-01 2.97569919480447365e-01 -7.55073054608587313e-01 4.41410264850522851e-04 1.32577423077170887e-04
8.51138038202375889e+08 -4.99457127903329447e-04 1.28629982198913808e-03 -1.89116725995321311e-01 -7.87496399679138426e-01 -1.89116725995321311e-01 -7.87496399679138426e-01 1.10123297707640975e-03 7.42481502779122502e-04
8.70963589956079602e+08 8.95476174348926331e-04 -1.56618306449913527e-03 -6.12028766270170888e-01 -5.26646075820365822e-01 -6.12028766270170888e-01 -5.26646075820365822e-01 1.39396446186538354e-03 -1.80251247078490269e-04
8.91250938133744121e+08 -1.37588908068392193e-03 2.34752532670503942e-04 -8.03522112993375504e-01 -5.65464103519232944e-02 -8.03522112993375504e-01 -5.65464103519232944e-02 -2.69669011669583264e-04 7.25158097037750284e-04
9.12010839355911493e+08 1.00673301701621602e-03 4.65140040193190798e-04 -6.69719053020081501e-01 4.43591878879771639e-01 -6.69719053020081501e-01 4.43591878879771639e-01 8.26919528154001831e-04 -2.43083422773047395e-04
9.33254300796992421e+08 -4.22056751083346152e-04 3.69713176362316761e-04 -2.49424834894761971e-01 7.62540032767996645e-01 -2.49424834894761971e-01 7.62540032767996645e-01 7.63847932891292543e-04 2.85483994750063629e-04
9.54992586021436930e+08 9.17342841012822453e-04 1.98649561386366418e-04 2.87528969165800452e-01 7.46615815728901677e-01 2.87528969165800452e-01 7.46615815728901677e-01 -4.83122460268216661e-04 3.13147325157653422e-05
9.77237220955811143e+08 1.73387385618336794e-04 -9.73227420544061500e-05 7.00919184724518307e-01 3.82594242745598334e-01 7.00919184724518307e-01 3.82594242745598334e-01 4.38607624560942173e-04 -9.45910309718178298e-04
1.00000000000000000e+09 9.72840344792239562e-04 -6.93966604784633468e-04 7.76032539522114040e-01 -1.70037849418962855e-01 7.76032539522114040e-01 -1.70037849418962855e-01 -1.92075526945526188e-04 -2.71221343041858683e-04
1.01000000000000000e+09 3.52734415151785292e-04 -5.95949789351767566e-04 6.85508355023377924e-01 -4.03047566336208751e-01 6.85508355023377924e-01 -4.03047566336208751e-01 -1.33736308925238873e-03 9.15236800794966515e-04
1.02000000000000000e+09 7.78439050401812842e-04 -1.31478940697755562e-04 5.26201367193050884e-01 -5.95113303831033669e-01 5.26201367193050884e-01 -5.95113303831033669e-01 -3.29873839380075595e-04 -2.92836170414074927e-04
1.03000000000000000e+09 8.46940193767519302e-04 -5.64811516553329648e-04 3.13942312374313082e-01 -7.27475995252852670e-01 3.13942312374313082e-01 -7.27475995252852670e-01 -3.61560077573260614e-04 2.84535646406614669e-05
1.04000000000000000e+09 6.25109141989118374e-04 -2.32962902183604268e-04 7.40674425038714279e-02 -7.88564198671298566e-01 7.40674425038714279e-02 -7.88564198671298566e-01 -1.58878132445057843e-04 4.29409986348982154e-04
1.05000000000000000e+09 -1.08736213739282265e-04 1.55709854067205252e-03 -1.74475834866268914e-01 -7.72819249268443031e-01 -1.74475834866268914e-01 -7.72819249268443031e-01 6.13231930002877440e-04 -8.55182381406782472e-04
1.06000000000000000e+09 -2.15176259197690981e-04 1.55049911457908401e-04 -4.04257925933504236e-01 -6.80233717395211324e-01 -4.04257925933504236e-01 -6.80233717395211324e-01 -1.47578412793670372e-03 1.37668919581910112e-03
1.07000000000000000e+09 8.69330889534128404e-04 3.95840574578138816e-04 -5.93111235143223059e-01 -5.19523467920629201e-01 -5.93111235143223059e-01 -5.19523467920629201e-01 3.53302456370843459e-04 3.63454060812184315e-04
1.08000000000000000e+09 -6.11818322486509721e-05 -1.84179175444539809e-04 -7.26367342703469476e-01 -3.09616473501662381e-01 -7.26367342703469476e-01 -3.09616473501662381e-01 4.94810791941755379e-04 -3.97109627160776202e-04
1.09000000000000000e+09 -4.59742405738248084e-04 7.30177442710174007e-04 -7.85988526069153814e-01 -6.98449521061444284e-02 -7.85988526069153814e-01 -6.98449521061444284e-02 -1.50536265885640747e-03 -1.50492780598185036e-03
1.10000000000000000e+09 1.71549869465087933e-04 3.15108630219535499e-04 -7.67609563480890711e-01 1.77851652505661068e-01 -7.67609563480890711e-01 1.77851652505661068e-01 -1.66854225109116025e-04 -1.83746969854609401e-03
1.11000000000000000e+09 -1.63321494236683481e-06 -1.55505622131907686e-04 -6.74408128002684126e-01 4.04808092956532306e-01 -6.74408128002684126e-01 4.04808092956532306e-01 1.32477585128334740e-04 -3.89295815495757137e-05
1.12000000000000000e+09 -7.63620289647929892e-04 -5.11210347918859744e-04 -5.14361191864501022e-01 5.94789394702603058e-01 -5.14361191864501022e-01 5.94789394702603058e-01 -1.98992115344712997e-04 3.23417979933952719e-04
1.13000000000000000e+09 -1.20794757508225874e-03 7.45337958468044511e-04 -3.05224209130156521e-01 7.23646480359084521e-01 -3.05224209130156521e-01 7.23646480359084521e-01 -4.18954724885189770e-04 1.05331784863285663e-04
1.14000000000000000e+09 -3.97691206669410953e-04 -5.68146495914604146e-04 -6.47479554365654186e-02 7.81877114242844673e-01 -6.47479554365654186e-02 7.81877114242844673e-01 -2.86373571237904395e-04 -1.95828443013934425e-04
1.15000000000000000e+09 -3.61770684531607112e-05 3.50695861589437154e-04 1.80117074430407753e-01 7.62887037744812258e-01 1.80117074430407753e-01 7.62887037744812258e-01 -1.83150214210631634e-03 -2.50013132750312580e-04
1.16000000000000000e+09 -8.72541644434940341e-05 -4.83019342599049504e-04 4.06896069940414884e-01 6.69095744369772927e-01 4.06896069940414884e-01 6.69095744369772927e-01 -1.13027811909119269e-04 -3.22470891800232776e-04
1.17000000000000000e+09 -5.41699228522087408e-04 -2.97327140544636863e-04 5.94481443467553161e-01 5.07922924639409801e-01 5.94481443467553161e-01 5.07922924639409801e-01 -3.24658514555863095e-05 -7.49185290819095236e-04
1.18000000000000000e+09 5.00823378974416910e-04 2.53527652290588866e-04 7.22266923710040865e-01 2.99222072777600046e-01 7.22266923710040865e-01 2.99222072777600046e-01 -4.00676024297533424e-04 -3.81235127785070833e-04
1.19000000000000000e+09 5.76485213155797111e-04 -5.75267555479377495e-06 7.78298291333556769e-01 6.13071538258181392e-02 7.78298291333556769e-01 6.13071538258181392e-02 -7.48082618203876827e-04 1.63467297498262853e-04
1.20000000000000000e+09 -8.20057547880547827e-05 7.05162185215530584e-04 7.57943778664663226e-01 -1.82483347433003706e-01 7.57943778664663226e-01 -1.82483347433003706e-01 8.97967415358169574e-04 -7.25607672667185808e-04
1.21000000000000000e+09 -2.46473823470079055e-04 -2.36143400097668801e-04 6.64195345671737436e-01 -4.08706650371777114e-01 6.64195345671737436e-01 -4.08706650371777114e-01 5.44386764802864053e-04 1.32262671386362352e-03
1.22000000000000000e+09 -1.49500596208257961e-03 2.72389994111784588e-04 5.02502429452224342e-01 -5.93262257237513135e-01 5.02502429452224342e-01 -5.93262257237513135e-01 4.14751981528008922e-04 -1.03246596770053124e-03
1.23000000000000000e+09 -1.02907668072896416e-03 -7.36453642291776166e-04 2.94521433682308653e-01 -7.19752755823302448e-01 2.94521433682308653e-01 -7.19752755823302448e-01 9.77656838374443143e-04 -1.30692650508310308e-03
1.24000000000000000e+09 -1.89618654441443894e-04 8.59476787653243161e-04 5.75952091012839895e-02 -7.73805957484121953e-01 5.75952091012839895e-02 -7.73805957484121953e-01 9.36163102443419146e-04 -6.70948402814208517e-04
1.25000000000000000e+09 -3.98399373134697556e-05 -2.64554194416695811e-04 -1.86112934111007183e-01 -7.53085514331570671e-01 -1.86112934111007183e-01 -7.53085514331570671e-01 1.28154986751743987e-04 -1.35183413828242381e-04
1.26000000000000000e+09 3.14588026959915722e-04 -5.40760206567147766e-04 -4.11098213492999631e-01 -6.58157476379484407e-01 -4.11098213492999631e-01 -6.58157476379484407e-01 -1.02471670245401093e-04 2.55203382009986919e-04
1.27000000000000000e+09 -1.18316941238524615e-03 3.58743095385722775e-04 -5.93376299093644866e-01 -4.98243109413348928e-01 -5.93376299093644866e-01 -4.98243109413348928e-01 -1.55143001304539649e-04 -1.16225615776311460e-03
1.28000000000000000e+09 -1.28511666097079567e-03 3.37803153063969029e-05 -7.18452498224479874e-01 -2.88822392168815612e-01 -7.18452498224479874e-01 -2.88822392168815612e-01 -2.81492037746503508e-04 1.69003574235523793e-03
1.29000000000000000e+09 1.52759467468998027e-03 5.16853458090060520e-04 -7.72132008069479792e-01 -5.23262905944311407e-02 -7.72132008069479792e-01 -5.23262905944311407e-02 8.80718143130408980e-05 -1.65916849049293764e-04
1.30000000000000000e+09 -6.31834943393144266e-04 -5.09387418420826450e-04 -7.49040274789764204e-01 1.88076203583507018e-01 -7.49040274789764204e-01 1.88076203583507018e-01 6.96624326005464774e-04 -9.08872014575659278e-04
1.31000000000000000e+09 2.19538796610396216e-04 3.51017420997724546e-04 -6.52477140373314723e-01 4.11695973030852036e-01 -6.52477140373314723e-01 4.11695973030852036e-01 3.45604614420627284e-04 -1.86190996310676244e-04
1.32000000000000000e+09 4.06939669621196045e-04 -1.62412210383152457e-04 -4.94274366499061868e-01 5.92906160851070285e-01 -4.94274366499061868e-01 5.92906160851070285e-01 2.72975903780134452e-04 -5.14641059606647019e-04
1.33000000000000000e+09 -6.01641656835671148e-05 -5.13288096256906724e-04 -2.84262066960647763e-01 7.15817830486217721e-01 -2.84262066960647763e-01 7.15817830486217721e-01 5.91407789823942317e-04 7.06542774796588974e-04
1.34000000000000000e+09 2.93917988813957348e-04 -7.26679895131456953e-04 -4.82537756722206251e-02 7.68254673619021999e-01 -4.82537756722206251e-02 7.68254673619021999e-01 -8.28346061602555075e-04 3.63746957267528615e-04
1.35000000000000000e+09 3.16647257809948553e-04 -5.75876769759919231e-04 1.91333339508933054e-01 7.43188729309644303e-01 1.91333339508933054e-01 7.43188729309644303e-01 -6.11598975682842253e-05 1.23871588235105359e-03
1.36000000000000000e+09 9.19334081694730141e-04 -3.35904811968358856e-04 4.11938849207389768e-01 6.47396841502679954e-01 4.11938849207389768e-01 6.47396841502679954e-01 -4.71361300788377823e-04 4.47619484065306676e-04
1.37000000000000000e+09 -9.28832785333906508e-04 1.60028203597056026e-03 5.91981562103454872e-01 4.87875454610791071e-01 5.91981562103454872e-01 4.87875454610791071e-01 7.57089510987068808e-04 9.65248915646911738e-04
1.38000000000000000e+09 -1.17930535465231865e-03 -6.14093595880096910e-04 7.13688618793288820e-01 2.81296146625258647e-01 7.13688618793288820e-01 2.81296146625258647e-01 -1.79093300846429587e-03 -1.33275970446766236e-03
1.39000000000000000e+09 -4.88086656411419891e-04 -2.93101644466404367e-05 7.64732146416429948e-01 4.47914097477300488e-02 7.64732146416429948e-01 4.47914097477300488e-02 -3.80819306114658213e-04 -3.28654736051208428e-04
1.40000000000000000e+09 -8.49967385233877108e-04 1.48212891905249116e-04 7.39789823243818367e-01 -1.92336839149681194e-01 7.39789823243818367e-01 -1.92336839149681194e-01 6.99405399321775898e-04 -4.81383766008427813e-05
1.41000000000000000e+09 1.05495736370414387e-03 1.48220846161896153e-04 6.43999894462130018e-01 -4.14022376211768406e-01 6.43999894462130018e-01 -4.14022376211768406e-01 4.82450857634513094e-04 3.89344364795161978e-04
1.42000000000000000e+09 2.54968054071158035e-04 7.94510286573065172e-05 4.83448043772685743e-01 -5.91977559929381170e-01 4.83448043772685743e-01 -5.91977559929381170e-01 -8.17678508904108483e-04 -1.37339219136991099e-03
1.43000000000000000e+09 -6.85329759525006945e-04 3.23615215851625227e-04 2.76294945076790033e-01 -7.11123098826595634e-01 2.76294945076790033e-01 -7.11123098826595634e-01 6.05476645720941968e-04 -1.09777478752209022e-03
1.44000000000000000e+09 6.18776532518215314e-04 -1.96061613461901482e-04 4.14612078469649425e-02 -7.62660470092226705e-01 4.14612078469649425e-02 -7.62660470092226705e-01 -5.83359476810769995e-04 9.42007336947521664e-04
1.45000000000000000e+09 -7.63747577250782823e-04 5.01691464036402258e-04 -1.95747704216343854e-01 -7.36288784593951640e-01 -1.95747704216343854e-01 -7.36288784593951640e-01 7.65674041341244055e-04 -1.12431738711802113e-03
1.46000000000000000e+09 -7.92294162634390466e-04 5.95934984311132388e-04 -4.14902240813075973e-01 -6.38060958755219065e-01 -4.14902240813075973e-01 -6.38060958755219065e-01 -7.27564454955944000e-05 8.06763584382379456e-04
1.47000000000000000e+09 6.18462348556895330e-04 3.65576518190039866e-05 -5.91441368681583257e-01 -4.78091325545855650e-01 -5.91441368681583257e-01 -4.78091325545855650e-01 -6.02615133726944478e-04 1.49640375440410168e-06
1.48000000000000000e+09 6.98917732966091538e-04 -5.13875765867166258e-05 -7.09137973654179743e-01 -2.71540580035529111e-01 -7.09137973654179743e-01 -2.71540580035529111e-01 -4.90912874068395711e-04 -4.95207852106389142e-04
1.49000000000000000e+09 -4.66233834554052201e-04 6.17659126682840897e-05 -7.57139784627692380e-01 -3.73294687793488122e-02 -7.57139784627692380e-01 -3.73294687793488122e-02 -9.05715268492730081e-04 1.91965870774185148e-04
1.50000000000000000e+09 -2.07094492201194793e-04 2.77236959587180047e-04 -7.31345996367177564e-01 1.97710077334770584e-01 -7.31345996367177564e-01 1.97710077334770584e-01 1.16238588561944143e-04 -7.23465021279715253e-04
1.51000000000000000e+09 6.57195473199447574e-04 -2.55026730443935068e-05 -6.34703940871791383e-01 4.15059435120945897e-01 -6.34703940871791383e-01 4.15059435120945897e-01 1.24513945191235313e-05 -3.77754027888367995e-04
1.52000000000000000e+09 2.12953678414954983e-04 8.92236324439204479e-04 -4.72962432088790741e-01 5.90575822326413369e-01 -4.72962432088790741e-01 5.90575822326413369e-01 4.07939711721473544e-04 6.46061919905743451e-04
1.53000000000000000e+09 -8.25099686480098389e-04 1.60330686378409192e-04 -2.65628332154862978e-01 7.07607359082947696e-01 -2.65628332154862978e-01 7.07607359082947696e-01 3.21056848402154476e-04 9.98892295092314222e-04
1.54000000000000000e+09 3.96425309638143684e-04 5.51535639052377663e-04 -3.46507394711007763e-02 7.54913826163841062e-01 -3.46507394711007763e-02 7.54913826163841062e-01 1.27809596936883491e-04 -8.56911129167775619e-06
1.55000000000000000e+09 9.40777951318861856e-04 1.28413374743624139e-03 2.01113851277015032e-01 7.26782682515039191e-01 2.01113851277015032e-01 7.26782682515039191e-01 1.38138542156372122e-04 3.36771505243829770e-04
1.56000000000000000e+09 2.23952117575083892e-04 1.51118107533291406e-04 4.15147980234124914e-01 6.28722714742111055e-01 4.15147980234124914e-01 6.28722714742111055e-01 -1.22018121042384255e-04 1.27181475061278961e-03
1.57000000000000000e+09 4.90036675158368566e-04 2.26139018431791288e-04 5.89823157298080214e-01 4.68588990582274656e-01 5.89823157298080214e-01 4.68588990582274656e-01 -2.98181713033136682e-05 4.98589133246326380e-06
1.58000000000000000e+09 -2.31559983267106716e-05 2.56373479906641776e-04 7.04581516868359792e-01 2.62341127031645915e-01 7.04581516868359792e-01 2.62341127031645915e-01 5.68731489624576397e-04 -3.70244067790194669e-04
1.59000000000000000e+09 -9.57453770034731653e-04 3.75060688085955161e-04 7.51934167754564564e-01 3.13470758260399190e-02 7.51934167754564564e-01 3.13470758260399190e-02 -9.44670677190650852e-05 -4.20783292362783220e-04
1.60000000000000000e+09 -2.41210989989028881e-04 -3.70240867542322085e-04 7.23630221649744665e-01 -2.03355854155775062e-01 7.23630221649744665e-01 -2.03355854155775062e-01 5.32931919695328409e-04 -3.87083440788557869e-04
1.61000000000000000e+09 5.75202447786316733e-04 6.11838540724831737e-04 6.24124408779527018e-01 -4.18215396057732280e-01 6.24124408779527018e-01 -4.18215396057732280e-01 -1.16293381057618815e-04 -8.08460848757581465e-04
1.62000000000000000e+09 -6.07708135090443487e-04 1.05996917983420700e-03 4.63011423809137235e-01 -5.89426363658338670e-01 4.63011423809137235e-01 -5.89426363658338670e-01 6.72415686143846159e-04 -4.18305290825789937e-04
1.63000000000000000e+09 -7.75874985462969547e-04 -5.51038165431299307e-04 2.57786630336668376e-01 -7.03413892778880445e-01 2.57786630336668376e-01 -7.03413892778880445e-01 2.68279276529047122e-04 3.37046345243754075e-04
1.64000000000000000e+09 -9.52961576824882888e-04 1.18639734401415988e-03 2.78598285122184965e-02 -7.48727406454694489e-01 2.78598285122184965e-02 -7.48727406454694489e-01 -5.96618883952681383e-04 -3.99693684532775742e-04
1.65000000000000000e+09 -8.03577008576694565e-04 -3.26594781290144597e-04 -2.05990522839727713e-01 -7.19754129148208022e-01 -2.05990522839727713e-01 -7.19754129148208022e-01 -6.01786749594289297e-04 -7.90777655473052891e-04
1.66000000000000000e+09 1.66916924014955234e-04 1.01336643636584008e-03 -4.17069453048953598e-01 -6.19831839846044508e-01 -4.17069453048953598e-01 -6.19831839846044508e-01 4.76630768907863238e-04 -1.24779245580395725e-03
1.67000000000000000e+09 3.28761842762156833e-04 9.56639531732626260e-04 -5.89535122488404117e-01 -4.59876996409308791e-01 -5.89535122488404117e-01 -4.59876996409308791e-01 -1.70506209206072398e-04 -6.03853169377652644e-04
1.68000000000000000e+09 6.53137140015148297e-05 -2.74912824262947704e-04 -7.01972737629817045e-01 -2.54714814467502271e-01 -7.01972737629817045e-01 -2.54714814467502271e-01 8.81044839662884540e-05 4.62125749469608524e-04
1.69000000000000000e+09 -8.63935628709134804e-04 -1.10629561649859502e-04 -7.44306348388656169e-01 -2.46188574202296402e-02 -7.44306348388656169e-01 -2.46188574202296402e-02 -9.69288254842132430e-04 2.06343287943354121e-03
1.70000000000000000e+09 -1.30790181357538673e-04 6.28120558688255513e-05 -7.15224348528701315e-01 2.08020440291902642e-01 -7.15224348528701315e-01 2.08020440291902642e-01 -5.57080875473226302e-04 -5.68738420058607962e-04
1.71000000000000000e+09 7.11999018467517498e-04 1.27335137165362713e-04 -6.16729984005320642e-01 4.19393733864604101e-01 -6.16729984005320642e-01 4.19393733864604101e-01 -5.58064439649613741e-04 -7.51890116189100942e-04
1.72000000000000000e+09 -1.69579299357536977e-03 1.35327719530369016e-04 -4.54557386365222804e-01 5.88289335007546543e-01 -4.54557386365222804e-01 5.88289335007546543e-01 -8.79575884416474905e-04 -1.36266568547983944e-03
1.73000000000000000e+09 -5.26110772710266313e-04 4.03127196546044662e-04 -2.49811539892816820e-01 6.99353674959455773e-01 -2.49811539892816820e-01 6.99353674959455773e-01 2.03816330033221565e-04 -5.35308375728964616e-04
1.74000000000000000e+09 7.12013792095423162e-04 1.42063937068842442e-03 -2.06889206443744839e-02 7.43519770011735970e-01 -2.06889206443744839e-02 7.43519770011735970e-01 5.88248875339758451e-04 1.29848566786019764e-04
1.75000000000000000e+09 -3.82252121989875313e-04 1.61342883977582724e-05 2.09697788241608646e-01 7.11606566407505414e-01 2.09697788241608646e-01 7.11606566407505414e-01 4.79058607068228077e-04 -8.00721576085384698e-04
1.76000000000000000e+09 4.88458985333127798e-04 -2.78229662629360028e-04 4.20327689301675578e-01 6.12281858517338407e-01 4.20327689301675578e-01 6.12281858517338407e-01 -5.85481718847664554e-04 -7.67743785935553032e-05
1.77000000000000000e+09 -8.19216277141651857e-04 -6.03676432520801548e-04 5.87067818346212800e-01 4.51839093079668686e-01 5.87067818346212800e-01 4.51839093079668686e-01 -3.78987794859944420e-04 -1.09457995687424177e-03
1.78000000000000000e+09 -1.15905404309786980e-04 2.38867811012667642e-04 6.97327148297276933e-01 2.45603983339449300e-01 6.97327148297276933e-01 2.45603983339449300e-01 -1.74651795541295280e-04 3.52600805900460249e-04
1.79000000000000000e+09 4.01838157002968959e-04 -7.40614168392826058e-04 7.40266496819346753e-01 1.79872405879586070e-02 7.40266496819346753e-01 1.79872405879586070e-02 -4.59949685825051667e-04 -2.69149574417282627e-05
1.80000000000000000e+09 3.56805380322162676e-04 -5.72316396981577941e-04 7.07285295207037090e-01 -2.12726325102166380e-01 7.07285295207037090e-01 -2.12726325102166380e-01 -5.11524641481789309e-04 1.08615125345557189e-03
1.81000000000000000e+09 3.05099325754670879e-05 -1.58342313452458660e-03 6.06779606807187788e-01 -4.20846410044591446e-01 6.06779606807187788e-01 -4.20846410044591446e-01 -5.95480555722124362e-04 -4.24496317898134963e-04
1.82000000000000000e+09 1.44774961125550288e-04 2.92234790510034867e-04 4.46048497052399351e-01 -5.86829149995536481e-01 4.46048497052399351e-01 -5.86829149995536481e-01 3.32916007904751935e-05 -1.15424591122350245e-04
1.83000000000000000e+09 -1.20954791894152975e-04 -4.24010910156541931e-04 2.42959255736930058e-01 -6.97504019552983578e-01 2.42959255736930058e-01 -6.97504019552983578e-01 4.88127838904503899e-04 -5.43365620178094940e-04
1.84000000000000000e+09 4.85066658331872368e-05 5.83702056083908638e-04 1.45738924722437161e-02 -7.36670299320757449e-01 1.45738924722437161e-02 -7.36670299320757449e-01 6.66461948945832965e-04 5.61301210075100488e-04
1.85000000000000000e+09 9.27616625763333461e-05 -3.29398315607236369e-04 -2.14478411941283170e-01 -7.04270148468403745e-01 -2.14478411941283170e-01 -7.04270148468403745e-01 7.52265323218895043e-05 9.51140088063267891e-04
1.86000000000000000e+09 -4.79971649747668852e-04 -6.88493125695688432e-04 -4.23039598155407148e-01 -6.01851480006499795e-01 -4.23039598155407148e-01 -6.01851480006499795e-01 -7.25082507735690996e-04 6.12822144337843823e-04
1.87000000000000000e+09 -3.15013501256730406e-04 7.89108765641896841e-05 -5.87241213467746936e-01 -4.41980824275931938e-01 -5.87241213467746936e-01 -4.41980824275931938e-01 -1.13484270550457018e-03 -4.15891351238555076e-06
1.88000000000000000e+09 -2.94487973545761329e-04 7.96339562938940980e-04 -6.94327698698426143e-01 -2.37786057974473108e-01 -6.94327698698426143e-01 -2.37786057974473108e-01 -8.53299414541365607e-04 5.55946451869322443e-05
1.89000000000000000e+09 1.34138707846860454e-04 -3.43379547860568320e-04 -7.35328881365717946e-01 -1.19241408909344562e-02 -7.35328881365717946e-01 -1.19241408909344562e-02 3.09744196752869240e-04 -1.10762898636728021e-03
1.90000000000000000e+09 -4.48027060489921162e-04 8.94945999434464405e-04 -7.01913959988034741e-01 2.16320083500980476e-01 -7.01913959988034741e-01 2.16320083500980476e-01 7.35823050331050666e-04 -8.55376181864331677e-04
1.91000000000000000e+09 2.80445403407128871e-04 -1.31425436329179915e-03 -5.98522121543187069e-01 4.22404815317981241e-01 -5.98522121543187069e-01 4.22404815317981241e-01 1.70325160726307026e-04 -2.42616769185457104e-04
1.92000000000000000e+09 1.96183178061100941e-04 5.30283174845899577e-04 -4.38959267431985767e-01 5.85016047428450814e-01 -4.38959267431985767e-01 5.85016047428450814e-01 2.48813253651602019e-04 -1.11383132844686641e-04
1.93000000000000000e+09 -1.08826719185033824e-04 1.26094824368594237e-04 -2.35770950506709986e-01 6.92545132036241573e-01 -2.35770950506709986e-01 6.92545132036241573e-01 -1.83411163509469876e-04 4.03579536913349114e-04
1.94000000000000000e+09 -9.50389702546840525e-04 -4.22736332850025644e-04 -9.16289594016953847e-03 7.31434527036140203e-01 -9.16289594016953847e-03 7.31434527036140203e-01 2.59732818542351182e-04 -1.49842143638049814e-03
1.95000000000000000e+09 3.70308703405601770e-05 -6.91502848297076444e-04 2.17971840618461504e-01 6.97664600971507731e-01 2.17971840618461504e-01 6.97664600971507731e-01 -2.69909072290470953e-04 -2.57856837792937285e-04
1.96000000000000000e+09 -2.77907698117768984e-05 -5.65308117618419604e-04 4.22565420218919852e-01 5.95884131734670475e-01 4.22565420218919852e-01 5.95884131734670475e-01 1.30744098809639463e-03 1.16360565441933628e-03
1.97000000000000000e+09 -9.67061329009151699e-04 5.20373618721369034e-04 5.87086067179505289e-01 4.34536443075375034e-01 5.87086067179505289e-01 4.34536443075375034e-01 -5.63592969633068520e-04 8.20311058564036433e-04
1.98000000000000000e+09 -2.86775492498605935e-04 1.64645707754873798e-04 6.91159907449095945e-01 2.30851431477619939e-01 6.91159907449095945e-01 2.30851431477619939e-01 3.57205181602975909e-04 -1.32765143915612277e-04
1.99000000000000000e+09 -6.90610089985960798e-05 5.97314512970042685e-04 7.28340227451958810e-01 6.40181357694833038e-03 7.28340227451958810e-01 6.40181357694833038e-03 9.28542609166278375e-04 -4.01975154033821613e-04
2.00000000000000000e+09 1.77652851990770053e-03 6.39443266372853852e-04 6.94060669839559496e-01 -2.18767294626689035e-01 6.94060669839559496e-01 -2.18767294626689035e-01 4.40818343521568010e-04 7.57243887086898946e-04
2.01000000000000000e+09 -1.17270482918885186e-04 3.96325530182554270e-04 5.92386621982649686e-01 -4.23293235615255836e-01 5.92386621982649686e-01 -4.23293235615255836e-01 -1.26706298858318494e-04 8.62910035780211086e-04
2.02000000000000000e+09 3.09769427984590850e-04 9.03268078128108731e-04 4.29984764111800311e-01 -5.85304631878832304e-01 4.29984764111800311e-01 -5.85304631878832304e-01 -1.91043647058270166e-03 -7.59628131641962453e-04
2.03000000000000000e+09 1.54426616477846136e-03 -1.26230196119295245e-04 2.28868684090938329e-01 -6.89220012475099342e-01 2.28868684090938329e-01 -6.89220012475099342e-01 5.96904571130754658e-04 -2.85515219480782798e-04
2.04000000000000000e+09 -6.97368741544921898e-04 5.44208451211225519e-04 2.26798465966299503e-03 -7.25743468107794998e-01 2.26798465966299503e-03 -7.25743468107794998e-01 -2.11070738018689696e-04 -3.29278854450089798e-04
2.05000000000000000e+09 3.78614133653359407e-05 -4.38296188937378349e-04 -2.20795402517828532e-01 -6.90285520385404583e-01 -2.20795402517828532e-01 -6.90285520385404583e-01 -3.62201892839156175e-05 -9.48333452341653977e-05
2.06000000000000000e+09 8.52360417488832382e-04 -1.05098654799725853e-03 -4.23681302822815076e-01 -5.86410054608917819e-01 -4.23681302822815076e-01 -5.86410054608917819e-01 1.73004044291657838e-04 -4.15154903794079930e-04
2.07000000000000000e+09 7.69883423571201728e-04 7.06237907109557683e-05 -5.85050542046705480e-01 -4.26806698220539960e-01 -5.85050542046705480e-01 -4.26806698220539960e-01 2.26027850387954617e-04 5.92175412027720876e-04
2.08000000000000000e+09 -4.31639944549104830e-04 -6.48476032137479679e-04 -6.88025093925747400e-01 -2.24726121595887229e-01 -6.88025093925747400e-01 -2.24726121595887229e-01 1.01505673571849011e-03 1.52066330131427714e-03
2.09000000000000000e+09 7.21604596145917826e-04 -2.95115907332107650e-04 -7.22426060901029232e-01 -1.76257266519248140e-03 -7.22426060901029232e-01 -1.76257266519248140e-03 8.73339121243930797e-04 7.33632345878704054e-04
2.10000000000000000e+09 2.20708389207148025e-04 -1.56164976533080593e-05 -6.86019854744170487e-01 2.23568442457923455e-01 -6.86019854744170487e-01 2.23568442457923455e-01 -6.32934322079507956e-04 5.80222909248474718e-04
2.11000000000000000e+09 -1.42907616049589656e-04 -1.72896265193017549e-04 -5.83409913387099133e-01 4.23628347921120418e-01 -5.83409913387099133e-01 4.23628347921120418e-01 -7.43756181998237267e-04 1.38084490016645764e-03
2.12000000000000000e+09 -5.09323160486015755e-04 7.42339949304793908e-04 -4.24055408620155616e-01 5.83688228648802432e-01 -4.24055408620155616e-01 5.83688228648802432e-01 4.34915667966991200e-04 3.99209631976650190e-04
2.13000000000000000e+09 -3.62281036517269077e-04 7.22842117858859081e-04 -2.21165092840240857e-01 6.86158671072801707e-01 -2.21165092840240857e-01 6.86158671072801707e-01 3.28492564363272043e-04 5.41634641017424401e-04
2.14000000000000000e+09 -1.47894799567007524e-04 7.03491341787059799e-04 1.94563327056012313e-03 7.20413978050725490e-01 1.94563327056012313e-03 7.20413978050725490e-01 5.87652524428030682e-05 1.65819705642275154e-04
2.15000000000000000e+09 2.59940552230375640e-04 6.12466006528036996e-04 2.25624149846833599e-01 6.83768907196767084e-01 2.25624149846833599e-01 6.83768907196767084e-01 -8.03914137862053561e-04 -3.08453955515541943e-04
2.16000000000000000e+09 2.60172299159083385e-05 1.94148125307534123e-04 4.24194215185167034e-01 5.80001601388024257e-01 4.24194215185167034e-01 5.80001601388024257e-01 9.73698672933798041e-04 -5.46769216206461706e-04
2.17000000000000000e+09 -1.31324994609288270e-03 4.77680871077523501e-04 5.83423462199505471e-01 4.19381135030109320e-01 5.83423462199505471e-01 4.19381135030109320e-01 -3.27078967629604550e-04 -4.86990423144656600e-04
2.18000000000000000e+09 -4.37143316820027108e-04 -8.77907709975826538e-04 6.84523633139032639e-01 2.18227909428333589e-01 6.84523633139032639e-01 2.18227909428333589e-01 3.33317115935691515e-04 -9.70659568510365755e-04
2.19000000000000000e+09 -7.03898585403021199e-04 -1.81129882306120641e-04 7.17697671611997379e-01 -4.58072595972471019e-03 7.17697671611997379e-01 -4.58072595972471019e-03 1.63116253525839741e-04 2.77785087059510721e-05
2.20000000000000000e+09 -5.57054890978166540e-04 -4.00741373283703241e-04 6.79161640729150307e-01 -2.28059414811761979e-01 6.79161640729150307e-01 -2.28059414811761979e-01 5.13328888511930008e-04 -7.63407785143302388e-04
2.21000000000000000e+09 4.46051450791831695e-04 -8.77030806538567050e-04 5.76552748185491515e-01 -4.24878057271572018e-01 5.76552748185491515e-01 -4.24878057271572018e-01 -4.06442223215177213e-04 9.75563347506571083e-04
2.22000000000000000e+09 8.04499337469387148e-04 1.18099913926905859e-03 4.18132029854711706e-01 -5.83164706163552760e-01 4.18132029854711706e-01 -5.83164706163552760e-01 7.07839937352656550e-05 -1.07620660598480955e-03
2.23000000000000000e+09 3.28215279970986689e-04 -1.61572355436008030e-05 2.14085351203508911e-01 -6.82888299003383659e-01 2.14085351203508911e-01 -6.82888299003383659e-01 -6.06019235041424216e-04 1.62266788120663452e-04
2.24000000000000000e+09 1.18102576569588434e-03 1.68440338526013337e-03 -5.64374399789969311e-03 -7.15275613830486434e-01 -5.64374399789969311e-03 -7.15275613830486434e-01 -2.18458536262248625e-04 8.36645435505226401e-04
2.25000000000000000e+09 -5.04388428679948238e-04 -4.09203521554867293e-04 -2.28729509624316041e-01 -6.76181329621648564e-01 -2.28729509624316041e-01 -6.76181329621648564e-01 -4.74608746824322606e-04 -3.58950311495239132e-05
2.26000000000000000e+09 -1.22669939947807014e-05 1.22951105313597573e-04 -4.27087368494256936e-01 -5.72098246852555614e-01 -4.27087368494256936e-01 -5.72098246852555614e-01 -5.47238147492940734e-04 8.39750522467929382e-04
2.27000000000000000e+09 6.10257551500336076e-04 -3.61185980271679495e-05 -5.82301124902949607e-01 -4.11017286902653323e-01 -5.82301124902949607e-01 -4.11017286902653323e-01 -6.02267254197336437e-04 -6.04112986046447908e-04
2.28000000000000000e+09 -8.78611644296990063e-04 6.53099488234419666e-04 -6.79977996173377619e-01 -2.12917695829831222e-01 -6.79977996173377619e-01 -2.12917695829831222e-01 -7.92275835274224298e-04 -7.42155092507773128e-04
2.29000000000000000e+09 -1.58734278271885056e-04 -9.52569860593566794e-04 -7.11544359303451945e-01 8.57871847877039392e-03 -7.11544359303451945e-01 8.57871847877039392e-03 3.19140671870691011e-04 1.51232240375041111e-04
2.30000000000000000e+09 1.45041512708838949e-04 -1.67135041267514584e-04 -6.73528250248712212e-01 2.28722995091539621e-01 -6.73528250248712212e-01 2.28722995091539621e-01 -7.24538947893422006e-04 2.45814412011791399e-04
2.31000000000000000e+09 -5.64867221531624680e-04 -1.13437865668492011e-03 -5.69419596926710292e-01 4.27579850084314761e-01 -5.69419596926710292e-01 4.27579850084314761e-01 -2.07507482572407385e-03 -6.78161975291702041e-04
2.32000000000000000e+09 -3.51439370327684419e-04 -1.18037725529327855e-04 -4.08755442361162125e-01 5.81993832446646486e-01 -4.08755442361162125e-01 5.81993832446646486e-01 -1.17324052034086353e-04 -2.47031215069535627e-04
2.33000000000000000e+09 -1.45450397127151163e-04 -9.01114111699681465e-04 -2.08212735504521823e-01 6.78267484085696370e-01 -2.08212735504521823e-01 6.78267484085696370e-01 1.30974919577696796e-04 -2.62861888278185520e-04
2.34000000000000000e+09 1.09020471389920299e-03 4.92986757801587485e-04 1.22641557594112393e-02 7.09588967050126085e-01 1.22641557594112393e-02 7.09588967050126085e-01 5.42662582964656979e-04 -5.95532913909397883e-04
2.35000000000000000e+09 -4.74203323188808587e-04 -1.36931618832324782e-03 2.31383702576790529e-01 6.69774834874667935e-01 2.31383702576790529e-01 6.69774834874667935e-01 1.49606318471632980e-04 7.35536287873365079e-04
2.36000000000000000e+09 -2.14017411459335293e-04 1.44018929714240414e-03 4.25924623621248166e-01 5.66086163531827058e-01 4.25924623621248166e-01 5.66086163531827058e-01 -9.98636609790302466e-04 3.61763963968250301e-04
2.37000000000000000e+09 2.64368417122826202e-04 1.38662169785013612e-04 5.80813587987290880e-01 4.04447370930112349e-01 5.80813587987290880e-01 4.04447370930112349e-01 -2.23668497112163988e-04 2.33883832669812844e-04
2.38000000000000000e+09 -5.27364103024742601e-04 4.14871650256201961e-06 6.77344751823413249e-01 2.04848025620234714e-01 6.77344751823413249e-01 2.04848025620234714e-01 3.54750306867553534e-04 6.44230273731191661e-04
2.39000000000000000e+09 1.26252490496773476e-03 -9.39414359670033084e-04 7.07021067990451058e-01 -1.33873379639040391e-02 7.07021067990451058e-01 -1.33873379639040391e-02 -1.66923515735794458e-04 -7.23900765379714446e-04
2.40000000000000000e+09 1.49382488011119593e-04 2.71173257526212690e-04 6.68088570678403992e-01 -2.31718105935013879e-01 6.68088570678403992e-01 -2.31718105935013879e-01 1.58590638152457343e-03 -3.17472442814827787e-04
2.41000000000000000e+09 3.56230737105956102e-04 1.46139464599596172e-04 5.60983999842844749e-01 -4.28362707238629015e-01 5.60983999842844749e-01 -4.28362707238629015e-01 -1.81008854836110019e-05 7.87188610393770060e-05
2.42000000000000000e+09 -8.35154405961349342e-04 1.45955097332132772e-04 4.00975411119122715e-01 -5.79316440294070478e-01 4.00975411119122715e-01 -5.79316440294070478e-01 1.24263802842130731e-03 -1.08089588315226064e-03
2.43000000000000000e+09 -2.77292458942372116e-04 -9.62496843692089792e-04 2.01565967911698479e-01 -6.76781055978428081e-01 2.01565967911698479e-01 -6.76781055978428081e-01 9.36984680397658760e-04 -1.76559540474430406e-03
2.44000000000000000e+09 2.65810831055043831e-05 -3.42125072665048059e-04 -1.78907148618700704e-02 -7.04027748536951825e-01 -1.78907148618700704e-02 -7.04027748536951825e-01 1.60809539582569948e-05 -3.07277083652797098e-04
2.45000000000000000e+09 -1.00957079633483379e-03 1.87832928068890862e-04 -2.34878940404776138e-01 -6.64955991039363314e-01 -2.34878940404776138e-01 -6.64955991039363314e-01 1.08609728956456913e-04 3.05923892277360822e-04
2.46000000000000000e+09 -1.82062766487140469e-03 1.11980981784196638e-08 -4.27634820324699849e-01 -5.58388880258203324e-01 -4.27634820324699849e-01 -5.58388880258203324e-01 1.58376988760980673e-04 1.89509641966842022e-04
2.47000000000000000e+09 5.73213286445856552e-04 -1.92310003863396182e-04 -5.79952514609384684e-01 -3.99175464676198799e-01 -5.79952514609384684e-01 -3.99175464676198799e-01 2.79425669541977066e-04 -1.07349269054980581e-03
2.48000000000000000e+09 -7.14545984181230893e-04 4.40413059376759589e-06 -6.74708328212924813e-01 -2.00261235374656815e-01 -6.74708328212924813e-01 -2.00261235374656815e-01 5.63591811386788316e-05 -4.31703082667116069e-04
2.49000000000000000e+09 3.31587544438952860e-06 1.17872540484793343e-03 -7.02093937629546749e-01 2.05171193303607842e-02 -7.02093937629546749e-01 2.05171193303607842e-02 9.38526639067448448e-04 3.27077974600568650e-04
2.50000000000000000e+09 -2.07985058655994065e-04 -3.48913318797452641e-04 -6.60788788967545448e-01 2.34819521889093136e-01 -6.60788788967545448e-01 2.34819521889093136e-01 2.28698486002979883e-04 3.87415059226805267e-04
2.51000000000000000e+09 9.76620332825561962e-05 -7.84689850731994164e-04 -5.54942951779363813e-01 4.28681708827772345e-01 -5.54942951779363813e-01 4.28681708827772345e-01 -1.23695551626446507e-03 -5.13519221371657378e-06
2.52000000000000000e+09 -4.04957878407624368e-04 4.51605003138150760e-04 -3.94183039539229230e-01 5.78303653695527387e-01 -3.94183039539229230e-01 5.78303653695527387e-01 -2.20635035708651643e-04 -2.85613719873458740e-04
2.53000000000000000e+09 4.79504737221989031e-04 -6.58450839397696193e-04 -1.95775611914953684e-01 6.73489641123097948e-01 -1.95775611914953684e-01 6.73489641123097948e-01 -2.16289501147740038e-03 3.32274241030537242e-04
2.54000000000000000e+09 -9.38689474640962531e-04 4.41562796818566531e-04 2.12670856034797573e-02 7.00006051121888739e-01 2.12670856034797573e-02 7.00006051121888739e-01 -4.94342400652930040e-04 2.74389437467648158e-05
2.55000000000000000e+09 -3.30575712366848289e-04 1.03630392135466588e-03 2.36844075434811896e-01 6.58669042836714458e-01 2.36844075434811896e-01 6.58669042836714458e-01 -5.89353149754482069e-04 5.05799387990809118e-05
2.56000000000000000e+09 -4.84723172009267561e-04 1.16428724061160742e-03 4.27589221665025776e-01 5.51024395956842938e-01 4.27589221665025776e-01 5.51024395956842938e-01 1.35496881588745397e-03 2.77294590522309307e-04
2.57000000000000000e+09 9.66383919103253595e-04 2.00242329855030901e-04 5.79003919684756285e-01 3.91825698855178428e-01 5.79003919684756285e-01 3.91825698855178428e-01 -7.56311068938522307e-05 -1.81877718018504537e-04
2.58000000000000000e+09 -6.60593450722037935e-04 9.22084156189374574e-04 6.72501125422984236e-01 1.92515092450242675e-01 6.72501125422984236e-01 1.92515092450242675e-01 -6.83578729282763634e-04 1.14808747343989634e-04
2.59000000000000000e+09 9.93302912197976170e-04 -1.05516296915528240e-04 6.97369582993634940e-01 -2.34866302167184814e-02 6.97369582993634940e-01 -2.34866302167184814e-02 -6.62751646477824992e-04 -1.01546282222324130e-04
2.60000000000000000e+09 -5.95928235936587234e-04 -1.78419103536189768e-04 6.54703100441322072e-01 -2.38232196910201116e-01 6.54703100441322072e-01 -2.38232196910201116e-01 -4.60840767736767727e-04 -7.66392523246191672e-04
2.61000000000000000e+09 -1.01936257953400607e-03 4.53782654787525646e-04 5.48860330326478851e-01 -4.28717553538506824e-01 5.48860330326478851e-01 -4.28717553538506824e-01 -6.69054158697964690e-04 3.10656291912187268e-04
2.62000000000000000e+09 5.19403417619322899e-04 -1.26008103742167288e-03 3.88247749119397023e-01 -5.78040252626030648e-01 3.88247749119397023e-01 -5.78040252626030648e-01 8.05311816051300415e-05 -4.91163107991376231e-04
2.63000000000000000e+09 6.16763860594314090e-05 -4.69648424881436539e-04 1.89974753625645976e-01 -6.68558067821647839e-01 1.89974753625645976e-01 -6.68558067821647839e-01 -8.93813111217085186e-05 -4.24088921443680400e-04
2.64000000000000000e+09 1.01830087049256345e-04 -1.33217922795011599e-03 -2.46683712577890103e-02 -6.93880659677882816e-01 -2.46683712577890103e-02 -6.93880659677882816e-01 -9.30010095716437266e-04 -1.67528923843009511e-04
2.65000000000000000e+09 -5.18269478393855150e-04 -1.62394463297573568e-04 -2.40256381196707530e-01 -6.52519849716571176e-01 -2.40256381196707530e-01 -6.52519849716571176e-01 -9.13192289077147047e-04 -2.58758066615694940e-03
2.66000000000000000e+09 -9.67396612518553922e-04 -3.33119208976972601e-04 -4.30907050799512248e-01 -5.45863810617199796e-01 -4.30907050799512248e-01 -5.45863810617199796e-01 -7.37010299587479844e-05 3.07793541831763212e-04
2.67000000000000000e+09 -4.13015879842485844e-04 6.42216820588531294e-05 -5.77051202187421786e-01 -3.85496707800311034e-01 -5.77051202187421786e-01 -3.85496707800311034e-01 -1.04675883696575154e-03 -2.10397338621290321e-04
2.68000000000000000e+09 -6.68358821783580285e-04 1.61741989516530233e-04 -6.66991898485932988e-01 -1.88341382214109149e-01 -6.66991898485932988e-01 -1.88341382214109149e-01 4.91654887426600093e-04 -6.09668106089783298e-05
2.69000000000000000e+09 -1.14290017014559496e-03 -2.80613526475649621e-04 -6.91819761252914556e-01 2.84751704082912525e-02 -6.91819761252914556e-01 2.84751704082912525e-02 -4.30309858337578398e-04 9.75054857567687373e-04
2.70000000000000000e+09 -8.26705684098942377e-04 1.32597363937425453e-03 -6.48614339295103814e-01 2.41462078180941425e-01 -6.48614339295103814e-01 2.41462078180941425e-01 5.90068163723554153e-04 1.15813225678752579e-03
2.71000000000000000e+09 -1.80833670715020104e-03 -7.87939468016776029e-04 -5.41541883830367721e-01 4.29742058577240627e-01 -5.41541883830367721e-01 4.29742058577240627e-01 -4.04323602691937587e-04 8.29558495899512821e-05
2.72000000000000000e+09 -4.24449863775374985e-04 5.15579520789503879e-05 -3.82334802926780404e-01 5.77001181138067532e-01 -3.82334802926780404e-01 5.77001181138067532e-01 6.97871964882804379e-04 3.06486411040228350e-04
2.73000000000000000e+09 8.27261220457815340e-04 6.58977289875236488e-04 -1.84440960216352506e-01 6.65089760612510350e-01 -1.84440960216352506e-01 6.65089760612510350e-01 4.80946856170438094e-04 1.08426855821338089e-03
2.74000000000000000e+09 1.43110733255220782e-03 5.88708011505173403e-04 3.05756535248913643e-02 6.88961079628555795e-01 3.05756535248913643e-02 6.88961079628555795e-01 -7.93374370420850579e-04 -5.58925806515120902e-04
2.75000000000000000e+09 2.92419884101699111e-04 -5.52963050619289858e-04 2.43067828984826734e-01 6.46124416205971275e-01 2.43067828984826734e-01 6.46124416205971275e-01 -1.88531036753919001e-04 -6.96686821017640447e-04
2.76000000000000000e+09 -2.11959578179174088e-04 -2.02259067992023540e-04 4.31959282644646614e-01 5.39506581640472826e-01 4.31959282644646614e-01 5.39506581640472826e-01 -2.57053372206167993e-04 -3.57411635172964976e-04
2.77000000000000000e+09 -7.05165913089255032e-04 -2.69594908467182294e-04 5.73888187069762079e-01 3.77607736302191299e-01 5.73888187069762079e-01 3.77607736302191299e-01 5.05095912609329688e-04 1.30618309102154668e-03
2.78000000000000000e+09 8.26436538688314387e-04 -2.47752171014237123e-04 6.63544110979270241e-01 1.81908541816531710e-01 6.63544110979270241e-01 1.81908541816531710e-01 3.40467380850231131e-04 -4.31397824770088682e-04
2.79000000000000000e+09 -3.08896029202262643e-04 -2.02233816356496413e-04 6.87624991961237053e-01 -3.28101446120910439e-02 6.87624991961237053e-01 -3.28101446120910439e-02 -4.82830302784692945e-04 -8.88459206384291248e-04
2.80000000000000000e+09 -7.41338290869186697e-05 7.39736452372009271e-04 6.43824360398225770e-01 -2.44185993577853727e-01 6.43824360398225770e-01 -2.44185993577853727e-01 -4.23988103020134829e-04 8.22858827253982752e-04
2.81000000000000000e+09 -5.42246432531565169e-04 -1.59421932600463547e-04 5.35008304304536164e-01 -4.29765781611986031e-01 5.35008304304536164e-01 -4.29765781611986031e-01 7.32087255835599639e-04 6.20055125101791555e-04
2.82000000000000000e+09 -6.50589742870388821e-04 5.37911984317302220e-04 3.76178780715299366e-01 -5.75402272765898171e-01 3.76178780715299366e-01 -5.75402272765898171e-01 -9.39720274439458038e-04 8.54777480535349500e-04
2.83000000000000000e+09 -1.56540898910747682e-03 7.21650673203161623e-04 1.78656754214036401e-01 -6.61881147272697312e-01 1.78656754214036401e-01 -6.61881147272697312e-01 1.04498269707690509e-04 -3.93953207895586543e-04
2.84000000000000000e+09 7.04039893373831454e-04 7.27094394458346373e-04 -3.44112363417731285e-02 -6.84722139109090744e-01 -3.44112363417731285e-02 -6.84722139109090744e-01 1.66430267526827965e-04 1.35910651813194827e-03
2.85000000000000000e+09 -1.81845366605671828e-03 1.15814198385025163e-04 -2.44954114848317722e-01 -6.41297640943135683e-01 -2.44954114848317722e-01 -6.41297640943135683e-01 -1.10258732016895876e-03 -3.78073774978184474e-04
2.86000000000000000e+09 -5.51848886145411247e-04 -3.43196150164100323e-04 -4.29996256502081065e-01 -5.33385465362333222e-01 -4.29996256502081065e-01 -5.33385465362333222e-01 6.48143285891842648e-04 -7.49246354884793714e-04
2.87000000000000000e+09 -8.18835064136957860e-04 2.29422305226885094e-04 -5.74872414919221808e-01 -3.72486827336936333e-01 -5.74872414919221808e-01 -3.72486827336936333e-01 4.98816238918995823e-04 1.00281684337539867e-04
2.88000000000000000e+09 -1.59258268515906191e-04 1.52527156867903932e-04 -6.61534264978743791e-01 -1.76945339459925327e-01 -6.61534264978743791e-01 -1.76945339459925327e-01 -8.45917909060244682e-04 8.58364020630120791e-04
2.89000000000000000e+09 3.24973482378551864e-04 -9.56718548550524839e-04 -6.82598631228865882e-01 3.64061928830369738e-02 -6.82598631228865882e-01 3.64061928830369738e-02 -6.15227560295656208e-04 9.54500293966735122e-04
2.90000000000000000e+09 -1.48243716418810915e-03 -8.93733584537860352e-05 -6.36373474486222945e-01 2.46750749615328974e-01 -6.36373474486222945e-01 2.46750749615328974e-01 -5.45520585110714513e-04 5.48720552997036121e-04
2.91000000000000000e+09 2.43871929478522900e-04 -6.25561975218059366e-04 -5.30262178655810046e-01 4.31662602757711011e-01 -5.30262178655810046e-01 4.31662602757711011e-01 -5.74358651488472835e-04 1.28297638598992071e-03
2.92000000000000000e+09 6.26149872061318121e-04 -5.73113361608380812e-04 -3.70015681300517374e-01 5.73552342131343984e-01 -3.70015681300517374e-01 5.73552342131343984e-01 4.96510620620554217e-04 -6.28932721597297664e-04
2.93000000000000000e+09 5.13456679043832473e-04 2.62824349908318184e-04 -1.74175578002745801e-01 6.60013144146536446e-01 -1.74175578002745801e-01 6.60013144146536446e-01 1.61248245916181934e-04 1.25685044389827480e-04
2.94000000000000000e+09 5.00351422132890825e-04 1.01483476930148563e-04 3.98594660843207965e-02 6.79629336156282071e-01 3.98594660843207965e-02 6.79629336156282071e-01 -2.32510012578115044e-04 -2.56728990601495071e-05
2.95000000000000000e+09 -3.64728543911718110e-05 1.52332263193614124e-04 2.47016393853887323e-01 6.33891833974993268e-01 2.47016393853887323e-01 6.33891833974993268e-01 5.09356221263288921e-04 -9.66433728714862048e-04
2.96000000000000000e+09 2.98951316887552688e-05 -4.73931529448984681e-04 4.30840160895500479e-01 5.26840457786960537e-01 4.30840160895500479e-01 5.26840457786960537e-01 -2.86467066582884056e-04 4.75862401341821774e-04
2.97000000000000000e+09 -1.20272169394665426e-04 -1.02421727545139651e-03 5.72822991649756585e-01 3.66674161138255739e-01 5.72822991649756585e-01 3.66674161138255739e-01 -5.45512330433897967e-04 1.41075829471519303e-04
2.98000000000000000e+09 -1.18955182118688722e-03 1.11424198771428173e-04 6.58283765003118027e-01 1.71981170248570764e-01 6.58283765003118027e-01 1.71981170248570764e-01 -3.35512311842627129e-04 -7.46058432406281643e-04
2.99000000000000000e+09 6.09870999648607910e-04 -4.24084899523388638e-04 6.78362339371343048e-01 -4.14473495671348752e-02 6.78362339371343048e-01 -4.14473495671348752e-02 5.55513268499673767e-04 -3.49927829574258286e-04
3.00000000000000000e+09 -8.75589942736288199e-04 -1.23700076897788119e-03 6.32262462087620492e-01 -2.47893882498067847e-01 6.32262462087620492e-01 -2.47893882498067847e-01 4.78467377872023058e-04 1.06496545161778979e-03
3.01000000000000000e+09 4.89937557197097349e-04 -6.25035060985829039e-04 5.23349458474824947e-01 -4.31906672578740214e-01 5.23349458474824947e-01 -4.31906672578740214e-01 -6.55522833318509103e-04 -9.58243094517289402e-05
3.02000000000000000e+09 1.14500733906631970e-03 8.00135681468603006e-04 3.63669928011162824e-01 -5.71982144419750593e-01 3.63669928011162824e-01 -5.71982144419750593e-01 -8.68138010280077857e-04 3.29156178790523935e-04
3.03000000000000000e+09 -1.75257643194212605e-04 9.20521312675005995e-04 1.68768859452716080e-01 -6.56683152466659870e-01 1.68768859452716080e-01 -6.56683152466659870e-01 -5.26009736724516704e-04 -4.10282152092842484e-04
3.04000000000000000e+09 2.66269673796778648e-04 -1.06651176683568547e-03 -4.24118145906602143e-02 -6.77255790006002889e-01 -4.24118145906602143e-02 -6.77255790006002889e-01 -5.17416583823038871e-05 -3.76308120939525950e-07
3.05000000000000000e+09 6.92087949598001770e-04 -5.42027262515548517e-04 -2.50218588611341219e-01 -6.29065714262663334e-01 -2.50218588611341219e-01 -6.29065714262663334e-01 -3.49111691147959108e-04 5.81538300250889514e-04
3.06000000000000000e+09 1.09741746899776516e-03 -8.73614466635388521e-04 -4.31965278820195198e-01 -5.19872964537607452e-01 -4.31965278820195198e-01 -5.19872964537607452e-01 6.05005478884846490e-05 -8.99678219324705425e-04
3.07000000000000000e+09 -1.28250979017292040e-03 1.81126266636011298e-04 -5.72963569958174102e-01 -3.60783230400284483e-01 -5.72963569958174102e-01 -3.60783230400284483e-01 -1.19016139769461109e-03 -5.49453614191685669e-04
3.08000000000000000e+09 -4.64241391162077720e-05 6.76325252042319931e-04 -6.55251877134761518e-01 -1.66418115337985228e-01 -6.55251877134761518e-01 -1.66418115337985228e-01 2.74484420126342159e-04 7.70428867335269663e-04
3.09000000000000000e+09 7.11393859343761241e-04 7.45695447813920598e-04 -6.75094249646393196e-01 4.45339422823013906e-02 -6.75094249646393196e-01 4.45339422823013906e-02 -9.64765879497155900e-04 -2.10577007702981624e-05
3.10000000000000000e+09 -6.62195669943456367e-04 2.24082605499870092e-04 -6.26272448611284727e-01 2.51092368043212000e-01 -6.26272448611284727e-01 2.51092368043212000e-01 1.86201121925261135e-04 6.64861639190556051e-04
3.11000000000000000e+09 -7.49177227953071634e-04 -7.04826786738506784e-04 -5.18187355478706979e-01 4.31795460627754368e-01 -5.18187355478706979e-01 4.31795460627754368e-01 2.49750597362613774e-04 1.19954273654786355e-04
3.12000000000000000e+09 3.01450256140467318e-05 -1.26535336675051850e-03 -3.57371364366417310e-01 5.71677098361655034e-01 -3.57371364366417310e-01 5.71677098361655034e-01 -5.90392523303356941e-04 -6.62647810922921518e-04
3.13000000000000000e+09 -1.15261878689968639e-04 -3.54356075504377497e-04 -1.64210701933930919e-01 6.53779238616375658e-01 -1.64210701933930919e-01 6.53779238616375658e-01 7.91335126755532826e-04 9.49672387681270479e-04
3.14000000000000000e+09 7.03587067439184646e-04 1.20507408016224857e-03 4.72222393552847661e-02 6.71730386525933199e-01 4.72222393552847661e-02 6.71730386525933199e-01 6.68613057176125031e-04 6.75863956463143675e-04
3.15000000000000000e+09 9.53758511130006238e-04 -4.70701440293133080e-04 2.53435343569962779e-01 6.23173686735124854e-01 2.53435343569962779e-01 6.23173686735124854e-01 1.18166279933368669e-03 1.03504522092539653e-03
3.16000000000000000e+09 -5.15696898800912661e-04 -1.85760684750808908e-04 4.32342837021686355e-01 5.15363841670258394e-01 4.32342837021686355e-01 5.15363841670258394e-01 8.96825753818681487e-04 4.13329451546199777e-05
3.17000000000000000e+09 -3.05428749884600491e-04 -3.11632351928919492e-05 5.69418641715324414e-01 3.54703349706486204e-01 5.69418641715324414e-01 3.54703349706486204e-01 -3.25223125666417349e-04 5.45846816559947376e-04
3.18000000000000000e+09 7.14211720904505657e-04 -1.22576235459156209e-03 6.51881287653031771e-01 1.61842482152081774e-01 6.51881287653031771e-01 1.61842482152081774e-01 5.34534780190439843e-04 3.36485260124253058e-04
3.19000000000000000e+09 2.12001643348171494e-04 8.29891616933467230e-04 6.68659661999109312e-01 -4.94920713069373075e-02 6.68659661999109312e-01 -4.94920713069373075e-02 3.15893658097147936e-04 -1.08757761349815701e-04
3.20000000000000000e+09 5.15957373157024652e-06 3.88201672131937149e-04 6.20839895637100181e-01 -2.53118194883731440e-01 6.20839895637100181e-01 -2.53118194883731440e-01 -1.01037681451690542e-03 -7.36167372438674113e-04
3.21000000000000000e+09 1.12679849178912292e-03 -1.46139216788181907e-03 5.11255594865116736e-01 -4.32623382348775565e-01 5.11255594865116736e-01 -4.32623382348775565e-01 -1.43947417664653946e-03 5.63059084169689099e-04
3.22000000000000000e+09 5.86384395187637296e-04 1.07881131940637683e-03 3.52119020478999345e-01 -5.69389021069170442e-01 3.52119020478999345e-01 -5.69389021069170442e-01 8.34316975442959789e-04 -4.41581407983294744e-04
3.23000000000000000e+09 -7.58258695836673617e-05 5.79779568780509338e-04 1.58542087620409056e-01 -6.51892518186697800e-01 1.58542087620409056e-01 -6.51892518186697800e-01 4.11876198426827525e-04 9.89277770714960380e-04
3.24000000000000000e+09 8.03178851364527772e-05 -1.33377721077112274e-03 -5.05851357503406193e-02 -6.67906319449171670e-01 -5.05851357503406193e-02 -6.67906319449171670e-01 7.61855735629610262e-04 -9.54080457707564937e-04
3.25000000000000000e+09 -6.39584481921773329e-04 -6.62842999877589356e-05 -2.54261743101785620e-01 -6.18282583185075452e-01 -2.54261743101785620e-01 -6.18282583185075452e-01 2.01301051373855178e-04 -1.21997880602883247e-03
3.26000000000000000e+09 -1.13382405645357605e-03 3.28232520527082237e-04 -4.32608619954319151e-01 -5.10159316163087739e-01 -4.32608619954319151e-01 -5.10159316163087739e-01 5.41670630787463559e-04 -4.52306123212263393e-04
3.27000000000000000e+09 1.08469059394414790e-03 8.60750448810835254e-04 -5.69663006231065694e-01 -3.49846285120245681e-01 -5.69663006231065694e-01 -3.49846285120245681e-01 -7.76096695046314222e-04 1.52465158493108054e-04
3.28000000000000000e+09 2.16725334101565675e-03 2.48241881211844770e-04 -6.49965308407843723e-01 -1.55074998179009382e-01 -6.49965308407843723e-01 -1.55074998179009382e-01 -5.60209182434881969e-04 2.95262210814819397e-04
3.29000000000000000e+09 3.91329187380939642e-04 3.93082391194719686e-04 -6.65594508871355628e-01 5.22487402110603932e-02 -6.65594508871355628e-01 5.22487402110603932e-02 2.90899120989992067e-04 -1.16346215041345435e-03
3.30000000000000000e+09 -9.36485312774292390e-04 -7.21591560872381034e-04 -6.17181732527856020e-01 2.55576070519210885e-01 -6.17181732527856020e-01 2.55576070519210885e-01 -3.86986139864100740e-04 9.74045592889308492e-04
3.31000000000000000e+09 4.75866476455844641e-04 -3.28805861752093343e-04 -5.06270024015786135e-01 4.32259043501640960e-01 -5.06270024015786135e-01 4.32259043501640960e-01 8.44377439551674135e-04 1.07013626882658248e-03
3.32000000000000000e+09 -1.85594004582349689e-04 4.10817471656920396e-04 -3.46798004782030156e-01 5.68662959500940035e-01 -3.46798004782030156e-01 5.68662959500940035e-01 -6.41303539196763270e-04 -9.95518465735315255e-04
3.33000000000000000e+09 -1.03195963645243095e-03 -1.06159358926695511e-03 -1.54594942903733990e-01 6.47253088597782300e-01 -1.54594942903733990e-01 6.47253088597782300e-01 -5.61433804535795044e-04 4.62900999599658990e-04
3.34000000000000000e+09 1.38715253460664043e-03 1.85559779870757643e-04 5.34133930296949791e-02 6.63359981709558899e-01 5.34133930296949791e-02 6.63359981709558899e-01 -6.22824913672070197e-04 8.48559851005889921e-04
3.35000000000000000e+09 9.67527237866612293e-04 5.87377022119997061e-04 2.56330041617740145e-01 6.14377307802881356e-01 2.56330041617740145e-01 6.14377307802881356e-01 4.15586316972532167e-04 6.82317055649214505e-04
3.36000000000000000e+09 -1.60954351807810142e-03 -2.98312113725744892e-05 4.33136083196346222e-01 5.03858617766298811e-01 4.33136083196346222e-01 5.03858617766298811e-01 3.60931690540393520e-04 4.76970141225839625e-04
3.37000000000000000e+09 -1.20061072053600127e-03 7.82969045017673404e-04 5.68162162901792445e-01 3.43905074054609461e-01 5.68162162901792445e-01 3.43905074054609461e-01 2.33341719692331318e-05 -6.95653758556373384e-04
3.38000000000000000e+09 -3.98639513395795985e-04 1.30318421068594762e-03 6.46118917986442498e-01 1.51848694453867034e-01 6.46118917986442498e-01 1.51848694453867034e-01 4.96248933360593264e-04 -8.48623626968151180e-04
3.39000000000000000e+09 -3.89206573546492906e-05 -1.18947967927319803e-03 6.61729105892594038e-01 -5.63693291920793829e-02 6.61729105892594038e-01 -5.63693291920793829e-02 5.49113194502011664e-04 3.71878869603769981e-04
3.40000000000000000e+09 1.08439473952319293e-03 -6.84791120901005160e-04 6.10530270559046961e-01 -2.57330290475007495e-01 6.10530270559046961e-01 -2.57330290475007495e-01 1.16756363480705568e-04 8.20350670976876319e-05
3.41000000000000000e+09 -7.48145897134682813e-04 -5.77364714199233632e-04 5.01142516710003205e-01 -4.34652819672579738e-01 5.01142516710003205e-01 -4.34652819672579738e-01 -5.05732401152471540e-04 2.83897574669180483e-04
3.42000000000000000e+09 4.32177691263601813e-04 -6.86822459301341553e-04 3.41348172795124916e-01 -5.67907211506976872e-01 3.41348172795124916e-01 -5.67907211506976872e-01 -1.24227962737187255e-04 8.32541525425691789e-05
3.43000000000000000e+09 1.58587823426859404e-04 -2.50093612323050831e-04 1.48510346335253451e-01 -6.46263822976786639e-01 1.48510346335253451e-01 -6.46263822976786639e-01 -4.76297935318644025e-04 5.76580267882368996e-04
3.44000000000000000e+09 -4.44087856604975068e-04 1.57609367815479153e-04 -5.82675740869259967e-02 -6.58000972624629421e-01 -5.82675740869259967e-02 -6.58000972624629421e-01 4.33843728808607106e-04 -2.34399084007112400e-04
3.45000000000000000e+09 -2.80465451564341508e-04 -3.01712162053425733e-04 -2.59286262436565162e-01 -6.09796247237900713e-01 -2.59286262436565162e-01 -6.09796247237900713e-01 5.72311627447945532e-04 -9.55293718360616614e-04
3.46000000000000000e+09 4.79747081134488816e-04 2.71248552838864994e-04 -4.34333673970985878e-01 -4.99104225936537416e-01 -4.34333673970985878e-01 -4.99104225936537416e-01 1.73009904659208449e-03 -8.10677374176572963e-04
3.47000000000000000e+09 -7.48879830361990468e-04 4.92295679250185085e-04 -5.65588712017674577e-01 -3.38889684231804988e-01 -5.65588712017674577e-01 -3.38889684231804988e-01 1.72463716990289763e-04 4.68863746094813074e-04
3.48000000000000000e+09 6.99220945306493311e-04 1.11301661119043798e-04 -6.43638006009200847e-01 -1.46399524745391807e-01 -6.43638006009200847e-01 -1.46399524745391807e-01 8.13608008868679723e-04 4.06058694425128451e-04
3.49000000000000000e+09 -7.07446187022849927e-04 2.78488222778886831e-04 -6.56298012908352324e-01 5.97925170574579792e-02 -6.56298012908352324e-01 5.97925170574579792e-02 1.72129798894089071e-04 -3.46161144506402607e-04
3.50000000000000000e+09 6.25450242769532176e-04 -2.69486029561278760e-04 -6.06128254716321258e-01 2.60525104041744615e-01 -6.06128254716321258e-01 2.60525104041744615e-01 2.87491357994631622e-04 5.23110674990581791e-04
3.51000000000000000e+09 -5.64103444544546617e-04 4.65383696934841868e-05 -4.95543863732687051e-01 4.33676650045184686e-01 -4.95543863732687051e-01 4.33676650045184686e-01 -1.85596179354129696e-04 -1.05645699185859542e-04
3.52000000000000000e+09 -4.38320928053242726e-04 -1.64800421163705359e-04 -3.36639480232835020e-01 5.65190376977391051e-01 -3.36639480232835020e-01 5.65190376977391051e-01 -8.74141446260160056e-04 -3.19891417523965248e-05
3.53000000000000000e+09 -9.86752440914573869e-05 -1.93968954404705727e-03 -1.43436717560519456e-01 6.41638399244790825e-01 -1.43436717560519456e-01 6.41638399244790825e-01 1.99531803953366654e-03 -1.53852768654876883e-03
3.54000000000000000e+09 -6.01014824146701813e-04 1.29176021546502238e-04 6.07988951479910764e-02 6.54311498822951254e-01 6.07988951479910764e-02 6.54311498822951254e-01 2.27380425665688822e-04 -8.91916776350494393e-04
3.55000000000000000e+09 3.44339455267773117e-04 2.93147285900328589e-04 2.59955874864390091e-01 6.03953357761452869e-01 2.59955874864390091e-01 6.03953357761452869e-01 -1.63553016315479767e-03 -1.08435987848609313e-03
3.56000000000000000e+09 1.75218817059314455e-04 1.13777149986306203e-04 4.35501544881543190e-01 4.91943955822786938e-01 4.35501544881543190e-01 4.91943955822786938e-01 9.96186187790537277e-04 -9.60003296057985490e-04
3.57000000000000000e+09 -1.29512555325629830e-05 -4.97081335219063899e-04 5.66362895293803459e-01 3.33039906634970073e-01 5.66362895293803459e-01 3.33039906634970073e-01 -1.26312069521023141e-04 7.35696847311159479e-04
3.58000000000000000e+09 -9.93164154600246389e-04 3.44508699724030930e-04 6.40445452599751941e-01 1.41072296658683399e-01 6.40445452599751941e-01 1.41072296658683399e-01 7.24425481753735757e-04 5.76115437220029694e-05
3.59000000000000000e+09 8.55036581211038489e-05 2.48194023674798317e-04 6.52321341319973547e-01 -6.44814379427560980e-02 6.52321341319973547e-01 -6.44814379427560980e-02 3.19018649255700134e-05 -8.00928825832741939e-04
3.60000000000000000e+09 2.31444150907176541e-04 1.12053585763525381e-03 6.00899455393463233e-01 -2.62738655013270650e-01 6.00899455393463233e-01 -2.62738655013270650e-01 2.08298035804750512e-04 -1.01573861418116813e-03
3.61000000000000000e+09 2.61099369107252672e-04 -6.89570121596872030e-04 4.90706517063950576e-01 -4.34623188269318117e-01 4.90706517063950576e-01 -4.34623188269318117e-01 8.81231147947906536e-05 3.90309004958785857e-04
3.62000000000000000e+09 -1.12668322198724284e-04 -9.51215919217579054e-04 3.31376552677825009e-01 -5.64346706425623457e-01 3.31376552677825009e-01 -5.64346706425623457e-01 4.12588155456649643e-04 -8.82790766960982729e-04
3.63000000000000000e+09 -1.23569695000314982e-03 -4.12348752956543283e-05 1.40774748838770919e-01 -6.38731600009564970e-01 1.40774748838770919e-01 -6.38731600009564970e-01 1.19407053067261738e-03 -9.35073374243853054e-04
3.64000000000000000e+09 1.36261135955321266e-05 -1.67543392700851513e-03 -6.42848996409871865e-02 -6.51708872613541712e-01 -6.42848996409871865e-02 -6.51708872613541712e-01 -5.26159749262418387e-04 2.02408328201647721e-04
3.65000000000000000e+09 4.71416579221742131e-04 -7.13052395282881340e-04 -2.63416706931844324e-01 -5.97388282338559673e-01 -2.63416706931844324e-01 -5.97388282338559673e-01 1.23732816419531955e-04 4.12702450269550303e-04
3.66000000000000000e+09 4.03028297571443822e-04 1.00506301240806746e-03 -4.35440371415564131e-01 -4.86545770441184633e-01 -4.35440371415564131e-01 -4.86545770441184633e-01 -7.86321370546602281e-04 -5.66763911161522176e-04
3.67000000000000000e+09 -2.47536040922799678e-04 2.21673023522897744e-04 -5.64459970976173619e-01 -3.28973829610194557e-01 -5.64459970976173619e-01 -3.28973829610194557e-01 -2.32116104329681977e-04 6.55829751733374251e-04
3.68000000000000000e+09 -7.80692446544398828e-04 2.21483089486445591e-04 -6.36947040273586285e-01 -1.38458945977413678e-01 -6.36947040273586285e-01 -1.38458945977413678e-01 -1.95112739276865390e-04 -1.73558492864779216e-04
3.69000000000000000e+09 3.07843002574519564e-04 7.04733093030530575e-04 -6.49819881577957670e-01 6.41705733370315362e-02 -6.49819881577957670e-01 6.41705733370315362e-02 -4.19342673239961349e-04 5.29077842389725226e-04
3.70000000000000000e+09 1.12344082081165960e-03 7.94363781581692349e-04 -5.96549618586245223e-01 2.63591286575460049e-01 -5.96549618586245223e-01 2.63591286575460049e-01 1.96709651379358482e-04 1.22573246136615057e-03
3.71000000000000000e+09 1.47266895430169702e-03 1.19822022316095145e-04 -4.84742130290739759e-01 4.34579459177011795e-01 -4.84742130290739759e-01 4.34579459177011795e-01 1.05917594855776281e-03 1.18936004592491815e-03
3.72000000000000000e+09 -6.38209197284924008e-04 1.13320162991711318e-03 -3.26424348733589331e-01 5.63778115457751694e-01 -3.26424348733589331e-01 5.63778115457751694e-01 -4.75044570672790830e-05 4.31854219321577083e-04
3.73000000000000000e+09 -3.87424232141495787e-04 -4.37188068087972302e-04 -1.35353925313521611e-01 6.35814893451383312e-01 -1.35353925313521611e-01 6.35814893451383312e-01 -1.26081252609867313e-03 -7.40499405660986288e-04
3.74000000000000000e+09 -7.55514789643277514e-04 1.03335425615652112e-03 6.89171078235402135e-02 6.46325953246086993e-01 6.89171078235402135e-02 6.46325953246086993e-01 7.85305186213449612e-05 8.96234792936603623e-04
3.75000000000000000e+09 3.38132436514147685e-04 1.93293748122787658e-04 2.65864733669450515e-01 5.94808656419321125e-01 2.65864733669450515e-01 5.94808656419321125e-01 -1.24083143916349612e-03 1.14141422917936157e-03
3.76000000000000000e+09 -2.11743968241034876e-03 -2.10792073690571478e-04 4.36404964808281670e-01 4.81409350997114016e-01 4.36404964808281670e-01 4.81409350997114016e-01 -9.76853565268724590e-04 -4.40259690426584124e-05
3.77000000000000000e+09 4.75272137675547177e-05 1.42604391869441389e-04 5.61564864870907066e-01 3.23199224658947515e-01 5.61564864870907066e-01 3.23199224658947515e-01 -1.81852337062393394e-03 7.40743966899953745e-04
3.78000000000000000e+09 -6.75331897839106789e-05 7.61125966700818923e-05 6.35215970587139744e-01 1.32751841788882885e-01 6.35215970587139744e-01 1.32751841788882885e-01 -5.97827490532636856e-04 -2.16917611805736481e-04
3.79000000000000000e+09 -1.81114138330758451e-03 -1.26659611637599460e-03 6.44863977495120255e-01 -6.92643247474231533e-02 6.44863977495120255e-01 -6.92643247474231533e-02 1.32541623923496370e-03 -2.03133032591802957e-03
3.80000000000000000e+09 -1.24085208426600061e-03 3.86983686467224568e-04 5.91647014852958009e-01 -2.65428820345115779e-01 5.91647014852958009e-01 -2.65428820345115779e-01 1.77235176411372252e-04 -1.46554265334422585e-04
3.81000000000000000e+09 -1.32708059063027495e-03 -8.87752804184764035e-04 4.80307441797261203e-01 -4.36347523210248389e-01 4.80307441797261203e-01 -4.36347523210248389e-01 1.11798962982665196e-04 1.61126501955123885e-03
3.82000000000000000e+09 -1.18139561326671561e-04 -1.14869676877360017e-03 3.22021935791527936e-01 -5.62768140677463835e-01 3.22021935791527936e-01 -5.62768140677463835e-01 5.34126215953498141e-06 6.15506548081935263e-05
3.83000000000000000e+09 8.87332141619340178e-04 3.54820707335072290e-04 1.33146052670276238e-01 -6.32841702870191036e-01 1.33146052670276238e-01 -6.32841702870191036e-01 1.37353938436165200e-04 7.62630696189441092e-04
3.84000000000000000e+09 2.97950940502799669e-04 4.09624463136548677e-04 -7.16132461928163933e-02 -6.42030618118200169e-01 -7.16132461928163933e-02 -6.42030618118200169e-01 1.07570717582524647e-03 -4.40156941810700695e-04
3.85000000000000000e+09 -8.76496348025404114e-04 1.31832659514849069e-03 -2.66859331669638267e-01 -5.88243920494081363e-01 -2.66859331669638267e-01 -5.88243920494081363e-01 -4.46712239871415037e-05 2.91054890849111556e-04
3.86000000000000000e+09 -1.29219443307858491e-04 -4.26170041051734719e-05 -4.35910929647221057e-01 -4.77377263668192220e-01 -4.35910929647221057e-01 -4.77377263668192220e-01 6.20266402188272338e-04 -1.98751498760437026e-04
3.87000000000000000e+09 -2.19656750944231507e-04 2.02370744661082067e-04 -5.62911925522044276e-01 -3.18319708756939435e-01 -5.62911925522044276e-01 -3.18319708756939435e-01 8.20418661171976060e-04 1.49863462386981322e-03
3.88000000000000000e+09 1.22372043725986566e-03 -8.15724090746903385e-05 -6.32516074646351179e-01 -1.28893688476301060e-01 -6.32516074646351179e-01 -1.28893688476301060e-01 9.60117415506502492e-04 7.67264874932475555e-06
3.89000000000000000e+09 -3.77242890585435277e-04 9.82340015949666667e-04 -6.41420510221219820e-01 7.34185229973199072e-02 -6.41420510221219820e-01 7.34185229973199072e-02 -6.51909644479781712e-04 -3.96411947064607344e-04
3.90000000000000000e+09 1.15770416873206116e-03 -8.89942408377507712e-04 -5.85436912066031212e-01 2.67653488250034988e-01 -5.85436912066031212e-01 2.67653488250034988e-01 4.91607935963105005e-04 1.74841052407380317e-04
3.91000000000000000e+09 -7.15389542568583138e-04 -1.01362879185426003e-05 -4.74016070061425543e-01 4.34740073459149834e-01 -4.74016070061425543e-01 4.34740073459149834e-01 -7.67976377975252192e-04 7.70449471010659710e-04
3.92000000000000000e+09 4.42203046787678123e-04 4.29129790719669148e-04 -3.16677027916904774e-01 5.60446820316396588e-01 -3.16677027916904774e-01 5.60446820316396588e-01 -4.02730466608311303e-04 -9.68715630769985707e-04
3.93000000000000000e+09 -3.69712880803846702e-04 1.57217509010451769e-03 -1.28589694666476712e-01 6.31494435751972727e-01 -1.28589694666476712e-01 6.31494435751972727e-01 -1.24141166495695472e-03 5.37023742746926651e-04
3.94000000000000000e+09 -1.06130302080862984e-04 -1.45792535526597381e-04 7.35566101772693048e-02 6.38305981785879384e-01 7.35566101772693048e-02 6.38305981785879384e-01 5.81346296685591513e-04 -4.03572740376477999e-04
3.95000000000000000e+09 8.30654746563658556e-04 1.35027106054826053e-03 2.67138039665908711e-01 5.83265698923275511e-01 2.67138039665908711e-01 5.83265698923275511e-01 -1.06604864354931973e-03 -7.89267934997947302e-04
3.96000000000000000e+09 -1.20199982568828877e-04 -6.86218589309617349e-05 4.36995312779858258e-01 4.73423141538741987e-01 4.36995312779858258e-01 4.73423141538741987e-01 -5.58539493495277127e-04 -1.27272976487880743e-03
3.97000000000000000e+09 3.49148195043016919e-04 5.61295596362829845e-04 5.58879995714303912e-01 3.12873983887895668e-01 5.58879995714303912e-01 3.12873983887895668e-01 -6.48838267809144650e-04 8.92043552027383248e-05
3.98000000000000000e+09 3.33560186862791135e-04 3.06338006570641512e-04 6.29188083075453819e-01 1.25138869614229598e-01 6.29188083075453819e-01 1.25138869614229598e-01 3.41783782342294806e-04 -3.83563888826656224e-04
3.99000000000000000e+09 7.52462503645250552e-05 -6.96083424312968235e-04 6.36803188938796394e-01 -7.68357241086009696e-02 6.36803188938796394e-01 -7.68357241086009696e-02 -3.92162253654890932e-05 2.16990538427595418e-04
4.00000000000000000e+09 9.54649182130971018e-04 4.08533600934358088e-04 5.81696874697063770e-01 -2.69970272799800071e-01 5.81696874697063770e-01 -2.69970272799800071e-01 5.92063368432256261e-04 6.83900382177619393e-04
4.01000000000000000e+09 -2.05859735324062242e-04 8.10311925409801280e-04 4.69687067211976450e-01 -4.36138318740537656e-01 4.69687067211976450e-01 -4.36138318740537656e-01 -7.78154691321973277e-04 1.69632034893537866e-04
4.02000000000000000e+09 -1.50398174792768327e-03 4.39478974581814159e-04 3.11218355161280325e-01 -5.59744338625220217e-01 3.11218355161280325e-01 -5.59744338625220217e-01 4.57355910576757389e-05 1.17463849811380626e-03
4.03000000000000000e+09 -3.62233717769419963e-04 -1.04013732447466394e-03 1.23386015671471588e-01 -6.29464344791154873e-01 1.23386015671471588e-01 -6.29464344791154873e-01 -5.91739666273533504e-04 1.10876943820363604e-03
4.04000000000000000e+09 -1.01281173655025716e-03 -4.53991735406312070e-04 -7.84293893388184199e-02 -6.34334632770652496e-01 -7.84293893388184199e-02 -6.34334632770652496e-01 4.33543466537295171e-04 -6.86788759431586002e-04
4.05000000000000000e+09 -6.16362214480166122e-04 -1.55446594439074409e-04 -2.69961998254414248e-01 -5.79325117391941924e-01 -2.69961998254414248e-01 -5.79325117391941924e-01 -1.03394289095245064e-03 1.37457523517477181e-04
4.06000000000000000e+09 -6.50760923340862329e-04 1.76568425860166829e-03 -4.35859936657244096e-01 -4.67709894063000287e-01 -4.35859936657244096e-01 -4.67709894063000287e-01 7.19900586261358892e-04 -7.77812039385945473e-04
4.07000000000000000e+09 -8.00298599772579326e-04 3.45314173615770680e-04 -5.59787632078830089e-01 -3.08942346756373276e-01 -5.59787632078830089e-01 -3.08942346756373276e-01 -5.81284969586615965e-05 -5.85038003484548335e-05
4.08000000000000000e+09 5.77911386096149928e-05 1.37700524351921783e-05 -6.27003988651473221e-01 -1.19901825947880680e-01 -6.27003988651473221e-01 -1.19901825947880680e-01 8.09093851646896546e-04 1.64040915822097105e-03
4.09000000000000000e+09 -1.26904692984555778e-03 1.49886986547079633e-04 -6.33625304442478554e-01 7.88611817467397974e-02 -6.33625304442478554e-01 7.88611817467397974e-02 -5.47569076038703168e-05 8.02342684493500343e-04
4.10000000000000000e+09 -6.75519812961207109e-04 5.94158410921176547e-04 -5.77006186913950558e-01 2.70454938401652523e-01 -5.77006186913950558e-01 2.70454938401652523e-01 -5.32072590684639816e-05 6.96182968623426527e-04
4.11000000000000000e+09 -2.33149467640122196e-04 5.57768422084319471e-04 -4.63138700811841164e-01 4.37416200848080139e-01 -4.63138700811841164e-01 4.37416200848080139e-01 -7.58267408219982309e-04 -1.77105531346029966e-04
4.12000000000000000e+09 -2.42812828370971636e-04 -7.25146876650826122e-04 -3.06591619745297972e-01 5.57029737447394924e-01 -3.06591619745297972e-01 5.57029737447394924e-01 -5.89239863716093195e-04 -7.77601223020402653e-04
4.13000000000000000e+09 3.86539258302483535e-05 2.47900751475986210e-04 -1.18471313568149897e-01 6.24592428213399997e-01 -1.18471313568149897e-01 6.24592428213399997e-01 9.59988065192413098e-05 6.80604831588826355e-04
4.14000000000000000e+09 4.68139922422454674e-04 7.31951945451120821e-04 8.00039877328383026e-02 6.31178227492144917e-01 8.00039877328383026e-02 6.31178227492144917e-01 -2.41689609994844332e-04 -6.18618478240964332e-04
4.15000000000000000e+09 1.30320931486365018e-03 4.61915323539104983e-04 2.71852197837916865e-01 5.75406490659407521e-01 2.71852197837916865e-01 5.75406490659407521e-01 6.27644312706153408e-04 -1.50606390297142786e-03
4.16000000000000000e+09 -5.17449439781842791e-04 1.04910017112065873e-03 4.35748690075601242e-01 4.61482790777158980e-01 4.35748690075601242e-01 4.61482790777158980e-01 7.68366855932749843e-04 4.73087461139145931e-04
4.17000000000000000e+09 1.05768045810349601e-05 -5.72323315298509648e-04 5.56440784748237660e-01 3.04194346722289510e-01 5.56440784748237660e-01 3.04194346722289510e-01 -6.90156285019635427e-04 -6.05811569731834021e-04
4.18000000000000000e+09 -1.01466881382273529e-04 -7.27476673286429551e-04 6.25003548802311570e-01 1.16510463800426151e-01 6.25003548802311570e-01 1.16510463800426151e-01 3.24797337616553462e-04 9.52644890708568800e-06
4.19000000000000000e+09 -5.91629176219603237e-04 6.91782230577108891e-04 6.29137470925862807e-01 -8.15476899493110252e-02 6.29137470925862807e-01 -8.15476899493110252e-02 -5.05966633330372799e-06 4.06807656348169957e-04
4.20000000000000000e+09 -1.23359187813613545e-03 -8.89722343655856502e-04 5.72613557115332128e-01 -2.73089418635732994e-01 5.72613557115332128e-01 -2.73089418635732994e-01 -2.96895966508184774e-04 -4.26957346848675810e-04
4.21000000000000000e+09 -1.55536266762678065e-04 7.82450557856173654e-04 4.59334258352283809e-01 -4.35823690582734791e-01 4.59334258352283809e-01 -4.35823690582734791e-01 2.16768019396137442e-04 -1.20918753897940654e-04
4.22000000000000000e+09 -3.40326690947745857e-04 -6.26108715753872949e-04 3.01713841757150492e-01 -5.56165399659411586e-01 3.01713841757150492e-01 -5.56165399659411586e-01 1.26280502794047446e-03 -1.77623323240499987e-03
4.23000000000000000e+09 -3.12298878893175168e-04 -5.93445078471521552e-04 1.14079609344663463e-01 -6.22588980589094509e-01 1.14079609344663463e-01 -6.22588980589094509e-01 8.15889886126671153e-04 6.58152707589669322e-04
4.24000000000000000e+09 9.51041557890678550e-04 -1.50594022074907889e-04 -8.39530583515154943e-02 -6.27941189640193631e-01 -8.39530583515154943e-02 -6.27941189640193631e-01 -3.54261119078261766e-04 -1.50837146879550447e-03
4.25000000000000000e+09 -1.75020964835188511e-04 -2.00129137816249821e-04 -2.73494544108404125e-01 -5.70767229253386521e-01 -2.73494544108404125e-01 -5.70767229253386521e-01 -1.02911848122726256e-03 9.85532080413455743e-04
4.26000000000000000e+09 -8.13931128558431963e-04 -3.93252950817594548e-04 -4.34623597522903582e-01 -4.57873141229745317e-01 -4.34623597522903582e-01 -4.57873141229745317e-01 -4.82703141952740052e-04 2.44040812248850537e-04
4.27000000000000000e+09 -4.28369375158171026e-04 -2.56161291500504591e-04 -5.55538266278483794e-01 -2.99111022070878585e-01 -5.55538266278483794e-01 -2.99111022070878585e-01 -3.92882271564418844e-04 5.46262215884231019e-05
4.28000000000000000e+09 -5.27753007972732121e-04 -8.83045351598109974e-05 -6.22068884335496564e-01 -1.14517777746477922e-01 -6.22068884335496564e-01 -1.14517777746477922e-01 3.21456863125525500e-04 -1.18468581349425567e-03
4.29000000000000000e+09 8.88651249741695328e-05 2.43142422447538930e-04 -6.24727038264526691e-01 8.47014731580811309e-02 -6.24727038264526691e-01 8.47014731580811309e-02 -3.57456949581544934e-04 -6.98166317985399144e-04
4.30000000000000000e+09 8.64953132090735713e-04 -8.14133470810957040e-04 -5.68202616411786043e-01 2.73636271469849202e-01 -5.68202616411786043e-01 2.73636271469849202e-01 -4.30843065560224331e-04 7.31620938329598583e-04
4.31000000000000000e+09 2.67885362969307917e-04 -8.04047161930834310e-04 -4.55135412527843009e-01 4.35760366694584622e-01 -4.55135412527843009e-01 4.35760366694584622e-01 1.40007175147260942e-04 -1.44337030969648658e-03
4.32000000000000000e+09 -5.88260611874500349e-04 4.21199858692328970e-04 -2.97946970008312939e-01 5.54153433621612956e-01 -2.97946970008312939e-01 5.54153433621612956e-01 -1.93164946105406213e-04 -3.24822877114109887e-05
4.33000000000000000e+09 4.63124160234747759e-04 -3.74873637165948489e-04 -1.10393979181847984e-01 6.21191881502022869e-01 -1.10393979181847984e-01 6.21191881502022869e-01 5.33847728757384571e-04 -9.13293034907263629e-04
4.34000000000000000e+09 4.74293701707265787e-04 -6.19203675561635306e-04 8.67783675367016505e-02 6.23882266826711551e-01 8.67783675367016505e-02 6.23882266826711551e-01 8.18304320833522026e-04 6.16462348372168265e-04
4.35000000000000000e+09 -3.27951423305907137e-04 -2.19606187411940822e-04 2.73821388958856937e-01 5.66581753445224878e-01 2.73821388958856937e-01 5.66581753445224878e-01 6.09296520121411627e-05 2.35197149430871734e-04
4.36000000000000000e+09 1.01509211918105391e-03 2.96636872552191752e-05 4.35246849111907419e-01 4.52450552688489660e-01 4.35246849111907419e-01 4.52450552688489660e-01 -7.29150651796617354e-04 8.68703827558308631e-04
4.37000000000000000e+09 -7.94072458028235575e-06 -5.23847060596810150e-04 5.54247496624714286e-01 2.95798047574461542e-01 5.54247496624714286e-01 2.95798047574461542e-01 6.51196546357992638e-04 -8.01357593550270069e-04
4.38000000000000000e+09 4.76199298272304305e-06 1.18150459025776963e-03 6.19171103252402211e-01 1.10386076886180295e-01 6.19171103252402211e-01 1.10386076886180295e-01 1.61451126917655757e-04 2.25628170923563567e-04
4.39000000000000000e+09 2.37003445314452231e-04 -5.50792975768966638e-04 6.20891594543078074e-01 -8.63809007865060235e-02 6.20891594543078074e-01 -8.63809007865060235e-02 -5.06434355242883229e-04 -7.48008512659177681e-04
4.40000000000000000e+09 -1.43851622176950178e-03 4.49678793493535703e-04 5.63293668141781612e-01 -2.75111065721605097e-01 5.63293668141781612e-01 -2.75111065721605097e-01 -4.36687643418260459e-04 1.79446633077548164e-04
4.41000000000000000e+09 1.92976718466036858e-04 2.86335073609572568e-04 4.49850118903502738e-01 -4.35299117381155232e-01 4.49850118903502738e-01 -4.35299117381155232e-01 1.20691825088093665e-03 -1.62065167923094110e-03
4.42000000000000000e+09 8.13600563565257547e-04 -1.32390754410389500e-03 2.92647578333435798e-01 -5.54302521616534927e-01 2.92647578333435798e-01 -5.54302521616534927e-01 -1.34885180508645310e-03 -7.68329728784379303e-04
4.43000000000000000e+09 -1.18055724202073640e-03 -3.95698663817728425e-05 1.07649350248551615e-01 -6.17893595256892358e-01 1.07649350248551615e-01 -6.17893595256892358e-01 -9.22269753018996959e-04 -6.06256683181464313e-04
4.44000000000000000e+09 -2.53349952145555315e-04 8.72892748855320097e-04 -8.84638091461005527e-02 -6.20315019337863593e-01 -8.84638091461005527e-02 -6.20315019337863593e-01 2.29295339150853065e-04 -5.47360735231452750e-04
4.45000000000000000e+09 4.72596162576353950e-04 7.76428236817796073e-04 -2.77144956430260325e-01 -5.62361186483504305e-01 -2.77144956430260325e-01 -5.62361186483504305e-01 4.19191679510089220e-04 -2.61726725151289379e-04
4.46000000000000000e+09 4.42542199416323927e-04 6.08179899544363293e-04 -4.35634542332781760e-01 -4.47330580876988626e-01 -4.35634542332781760e-01 -4.47330580876988626e-01 5.38798049233217059e-04 2.23079339650017906e-04
4.47000000000000000e+09 -9.45971850481314158e-04 -3.53721935539140389e-04 -5.55118360366544938e-01 -2.90869878828556860e-01 -5.55118360366544938e-01 -2.90869878828556860e-01 2.14471305061867979e-04 -3.99005557738427185e-04
4.48000000000000000e+09 1.08531948211647864e-03 7.16320666082452106e-04 -6.16590880850919842e-01 -1.04535294309324525e-01 -6.16590880850919842e-01 -1.04535294309324525e-01 -5.95748320072868385e-04 2.86329010939268686e-04
4.49000000000000000e+09 8.02507328366443810e-05 5.59579155124503673e-04 -6.17408453048344019e-01 9.03865570961990966e-02 -6.17408453048344019e-01 9.03865570961990966e-02 4.76836983274684235e-04 -5.47740819135428985e-04
4.50000000000000000e+09 -8.77812996002817498e-04 -3.99363441469815963e-04 -5.59934466695881428e-01 2.76548773588277508e-01 -5.59934466695881428e-01 2.76548773588277508e-01 -4.39409545411744069e-04 1.26956285509445074e-05
4.51000000000000000e+09 3.64735488561608579e-04 -8.21699751120992072e-04 -4.45682143747227033e-01 4.35152608922971307e-01 -4.45682143747227033e-01 4.35152608922971307e-01 -6.63748336461849188e-04 1.31301104802342768e-03
4.52000000000000000e+09 -6.12247580862971337e-04 -1.31857763403512885e-04 -2.88924418106669745e-01 5.53875997868244041e-01 -2.88924418106669745e-01 5.53875997868244041e-01 -1.93099326415042147e-04 9.58561795065917643e-04
4.53000000000000000e+09 -5.82559038945446766e-04 -5.81551323485107437e-04 -1.04145096006641402e-01 6.15950643895865402e-01 -1.04145096006641402e-01 6.15950643895865402e-01 3.88332947926181636e-04 -1.01591738353568137e-03
4.54000000000000000e+09 -2.86941213819964368e-04 -2.44240329303168995e-04 9.13892539416318178e-02 6.16618309556261179e-01 9.13892539416318178e-02 6.16618309556261179e-01 -5.85270399592482081e-04 -5.90192788755825536e-04
4.55000000000000000e+09 3.83166864363873117e-04 -1.05105582913367292e-03 2.77227187258849095e-01 5.57236184319120142e-01 2.77227187258849095e-01 5.57236184319120142e-01 1.49074173132744892e-04 -2.83698865881446818e-04
4.56000000000000000e+09 8.33546516343614083e-05 7.75027932292935199e-04 4.35999243548981508e-01 4.43347003717472155e-01 4.35999243548981508e-01 4.43347003717472155e-01 -6.27104051952457708e-04 1.51864034221274352e-03
4.57000000000000000e+09 -9.10486984173778725e-05 -1.07491603426883818e-03 5.51751338570897087e-01 2.87374407697706058e-01 5.51751338570897087e-01 2.87374407697706058e-01 6.80086657092874029e-04 5.35205185811516750e-04
4.58000000000000000e+09 -6.35356119820681270e-04 6.19730606649965265e-04 6.13902642591095615e-01 1.01592003162795846e-01 6.13902642591095615e-01 1.01592003162795846e-01 8.19100940383985648e-04 -3.33574784810463146e-04
4.59000000000000000e+09 4.31157557232463614e-04 -1.07901515081182549e-04 6.15025864353653584e-01 -9.20135824465000696e-02 6.15025864353653584e-01 -9.20135824465000696e-02 -2.10063692493874904e-04 -9.16407608406299024e-04
4.60000000000000000e+09 2.90093342821957510e-04 -1.45261334153522117e-04 5.55642190599467511e-01 -2.77243396842855871e-01 5.55642190599467511e-01 -2.77243396842855871e-01 -1.16375938826046989e-03 -1.00664221353920786e-04
4.61000000000000000e+09 -2.53411857175102047e-04 3.89354581127291863e-04 4.40834563332751006e-01 -4.36687571028474608e-01 4.40834563332751006e-01 -4.36687571028474608e-01 -1.33773225131723320e-03 1.38135697045010644e-05
4.62000000000000000e+09 -3.52414118987061866e-05 1.10329947580565689e-03 2.85129856412430605e-01 -5.51472682397150860e-01 2.85129856412430605e-01 -5.51472682397150860e-01 -4.86764099708524142e-04 -1.70778157860920689e-04
4.63000000000000000e+09 3.49990246532385166e-04 1.05968945721361370e-03 1.00555739078847461e-01 -6.12760350174501478e-01 1.00555739078847461e-01 -6.12760350174501478e-01 5.49449751689175210e-05 2.39846151133810213e-04
4.64000000000000000e+09 -3.61520226315007582e-04 -2.25425684687936465e-04 -9.36844845906075335e-02 -6.14189084244826211e-01 -9.36844845906075335e-02 -6.14189084244826211e-01 1.23750734151779201e-03 -4.25204658539057206e-04
4.65000000000000000e+09 -1.45680587069247931e-03 -5.37270745582141122e-04 -2.78521352451465698e-01 -5.53726285850055566e-01 -2.78521352451465698e-01 -5.53726285850055566e-01 -8.23006094829121810e-04 -1.39311281904802922e-03
4.66000000000000000e+09 5.92568834993922986e-04 -3.99448550767938365e-04 -4.35639411860623271e-01 -4.39421190612519552e-01 -4.35639411860623271e-01 -4.39421190612519552e-01 -2.89940012171182714e-04 4.23436119337024274e-04
4.67000000000000000e+09 -3.08271904648400776e-04 4.79646421076701930e-05 -5.50677520938164022e-01 -2.83653701091647281e-01 -5.50677520938164022e-01 -2.83653701091647281e-01 8.36671247266362699e-05 -1.73402768059803736e-04
4.68000000000000000e+09 -1.43555804875091669e-04 -4.54457068340512953e-04 -6.10020936620811360e-01 -9.87625030025478523e-02 -6.10020936620811360e-01 -9.87625030025478523e-02 -1.10921117552235135e-03 3.63594285277379697e-04
4.69000000000000000e+09 -3.55681046290059837e-04 3.04548761903116198e-04 -6.10518082703455645e-01 9.51059075849144259e-02 -6.10518082703455645e-01 9.51059075849144259e-02 -2.03386812470183586e-04 -6.68081020888906547e-04
4.70000000000000000e+09 -1.75884638551980401e-04 -1.38192086550130585e-03 -5.51378414875919320e-01 2.79823508097964357e-01 -5.51378414875919320e-01 2.79823508097964357e-01 6.72628014422975385e-04 -1.41196341833873390e-04
4.71000000000000000e+09 4.90860036071853268e-04 -3.85377876068298967e-04 -4.38254059078183156e-01 4.36814847721629707e-01 -4.38254059078183156e-01 4.36814847721629707e-01 -8.04861336572372868e-04 5.20489131848821856e-04
4.72000000000000000e+09 -2.93340518538656410e-04 5.32796738924921887e-04 -2.80758366348811683e-01 5.50262427609627847e-01 -2.80758366348811683e-01 5.50262427609627847e-01 6.41033433827702223e-04 -1.10977405332217871e-03
4.73000000000000000e+09 -8.28454877415178931e-05 -6.61122559949745876e-05 -9.56811627531249653e-02 6.10891316874836332e-01 -9.56811627531249653e-02 6.10891316874836332e-01 1.31890934191507768e-03 3.19893303679970353e-04
4.74000000000000000e+09 -6.13648593887341815e-04 1.08043560756103195e-04 9.68496425061851490e-02 6.08373311317216170e-01 9.68496425061851490e-02 6.08373311317216170e-01 7.30295990570051603e-04 1.05350733458787170e-03
4.75000000000000000e+09 1.67474806601286525e-04 3.33038771228974758e-05 2.80632523496580910e-01 5.49202378666615587e-01 2.80632523496580910e-01 5.49202378666615587e-01 -3.19687910590922466e-04 -6.17739213462022109e-04
4.76000000000000000e+09 -3.86178729589761098e-04 -1.00488746502899905e-04 4.36492051001491965e-01 4.34739048158204855e-01 4.36492051001491965e-01 4.34739048158204855e-01 7.09192068520992681e-04 -5.52237720612921675e-04
4.77000000000000000e+09 -7.37489105811146763e-04 -5.64478906375890234e-04 5.49224531685620909e-01 2.78172921286538533e-01 5.49224531685620909e-01 2.78172921286538533e-01 1.27985541410323964e-03 7.34530054521659705e-04
4.78000000000000000e+09 -1.31096407982523179e-04 -4.46872753828138217e-04 6.08396673332814331e-01 9.60920090129981780e-02 6.08396673332814331e-01 9.60920090129981780e-02 5.73326863933579819e-04 -1.09986688643951352e-04
4.79000000000000000e+09 4.13282839354781539e-04 2.84850219947583921e-04 6.07363654688200749e-01 -9.71475143862413071e-02 6.07363654688200749e-01 -9.71475143862413071e-02 -1.45657968568768068e-04 2.59929408810227909e-04
4.80000000000000000e+09 1.08738281772954816e-03 7.44656624373784344e-04 5.46383706191934659e-01 -2.81581455472069475e-01 5.46383706191934659e-01 -2.81581455472069475e-01 -9.48071067160877862e-04 4.82014228450386710e-04
4.81000000000000000e+09 7.96700532404770781e-04 3.25067524340041502e-04 4.33892691548147635e-01 -4.36754380261318631e-01 4.33892691548147635e-01 -4.36754380261318631e-01 -6.71101260135619545e-04 2.01882308955475933e-03
4.82000000000000000e+09 6.35280233832428683e-04 -2.62756819816718909e-04 2.76827214925589649e-01 -5.47873859128171325e-01 2.76827214925589649e-01 -5.47873859128171325e-01 -6.11330333940740989e-05 5.73639552245484722e-04
4.83000000000000000e+09 9.75618597827603918e-05 2.81307135131038638e-04 9.44613357432526057e-02 -6.07564002649735535e-01 9.44613357432526057e-02 -6.07564002649735535e-01 5.51826664404422807e-04 -4.53844958279413246e-04
4.84000000000000000e+09 4.43845422142180590e-04 -9.04551623860735282e-05 -9.88520530221939087e-02 -6.06615092157404168e-01 -9.88520530221939087e-02 -6.06615092157404168e-01 -3.91456628004041443e-04 -5.46774559555728338e-04
4.85000000000000000e+09 -1.93916382043564622e-04 -6.12430271499133359e-04 -2.81772445995396081e-01 -5.45828172775176479e-01 -2.81772445995396081e-01 -5.45828172775176479e-01 -5.90816473169564053e-04 1.06430829610226540e-04
4.86000000000000000e+09 4.05494791444367783e-04 -6.18777528105668179e-04 -4.35481026465560472e-01 -4.30321692601775441e-01 -4.35481026465560472e-01 -4.30321692601775441e-01 -3.54690413248549713e-05 6.52122384974317820e-04
4.87000000000000000e+09 -5.47210436321012321e-04 -1.37498665970222614e-03 -5.48503565176300389e-01 -2.72961065540216041e-01 -5.48503565176300389e-01 -2.72961065540216041e-01 1.16053491941966362e-03 3.84711096265038567e-04
4.88000000000000000e+09 -3.82569869284089510e-04 1.01323956611270964e-03 -6.06570545481132650e-01 -9.08836269564418930e-02 -6.06570545481132650e-01 -9.08836269564418930e-02 -1.01980982306902330e-03 -1.88779889256053969e-04
4.89000000000000000e+09 -3.02563101097216912e-04 -5.05107339681077402e-04 -6.03104036190994952e-01 9.98126392497523524e-02 -6.03104036190994952e-01 9.98126392497523524e-02 9.16311319894198427e-04 -5.46497044495757186e-04
4.90000000000000000e+09 4.50307048821362152e-04 1.01809909593704537e-03 -5.43466995623556159e-01 2.82095835144789087e-01 -5.43466995623556159e-01 2.82095835144789087e-01 6.16671637242608242e-04 3.65665261828783308e-04
4.91000000000000000e+09 -1.03292420785642034e-04 -8.13963203232613477e-04 -4.28262821620492284e-01 4.35911312967867726e-01 -4.28262821620492284e-01 4.35911312967867726e-01 1.57684559538440183e-03 6.11292797733298189e-04
4.92000000000000000e+09 -1.22117647315402137e-04 1.19084892500851314e-03 -2.73442753557490870e-01 5.48400069752991048e-01 -2.73442753557490870e-01 5.48400069752991048e-01 1.38960013538628286e-03 -2.65303794434612052e-04
4.93000000000000000e+09 -7.18438978625654886e-05 3.94775697198648302e-04 -8.97991526480595437e-02 6.03368866294544115e-01 -8.97991526480595437e-02 6.03368866294544115e-01 -1.11516933604342101e-03 6.31573752006135605e-04
4.94000000000000000e+09 5.74315572227589903e-04 -1.82890149011808730e-04 1.02508588955496541e-01 6.02438748611064057e-01 1.02508588955496541e-01 6.02438748611064057e-01 2.29486176321277123e-04 -1.54361189308316912e-03
4.95000000000000000e+09 8.24265374914752154e-04 -7.98068896584467127e-05 2.82748167562333730e-01 5.40728076372676503e-01 2.82748167562333730e-01 5.40728076372676503e-01 1.00778701852099269e-03 -3.17644923374142565e-04
4.96000000000000000e+09 6.02922567256928372e-04 6.52369917664040108e-04 4.37593122558780023e-01 4.27687472345104125e-01 4.37593122558780023e-01 4.27687472345104125e-01 -1.12541555183373111e-03 -5.14661006922587528e-04
4.97000000000000000e+09 -8.27689013115252641e-04 -1.41904375455385683e-04 5.47321799421892630e-01 2.70550436105150838e-01 5.47321799421892630e-01 2.70550436105150838e-01 3.25008510463876250e-04 2.33909224950385602e-05
4.98000000000000000e+09 -5.88948161020335791e-04 1.14165382594894977e-04 6.03355827333569739e-01 8.70551147309494150e-02 6.03355827333569739e-01 8.70551147309494150e-02 7.20110417928469327e-04 -1.90136576787963783e-04
4.99000000000000000e+09 8.70597889301395625e-04 6.22784567011803645e-04 6.00819166416001860e-01 -1.03780912294016023e-01 6.00819166416001860e-01 -1.03780912294016023e-01 1.34761956738399692e-04 7.88949899721934377e-04
5.00000000000000000e+09 4.01970021220502598e-04 -1.20758861071755576e-04 5.39001699670447865e-01 -2.83919140196725872e-01 5.39001699670447865e-01 -2.83919140196725872e-01 1.42165912311506592e-03 -3.74897911915557510e-04
5.01000000000000000e+09 -2.32185403938840534e-04 1.95781534735998822e-04 4.24613998928239977e-01 -4.36382201590766572e-01 4.24613998928239977e-01 -4.36382201590766572e-01 -6.51585948039601158e-05 -6.94300582767928116e-04
5.02000000000000000e+09 1.16690713519640552e-03 -2.98466390748625891e-04 2.68239745397962193e-01 -5.45432667893571477e-01 2.68239745397962193e-01 -5.45432667893571477e-01 6.93860258391875632e-04 5.55031487341545366e-04
5.03000000000000000e+09 2.78817688131953875e-05 -1.03096326893565020e-03 8.61053025565897689e-02 -6.02215514348384717e-01 8.61053025565897689e-02 -6.02215514348384717e-01 -1.41011558307522415e-03 3.67969244803627402e-04
5.04000000000000000e+09 2.23145080240498096e-05 -2.49599912464970315e-04 -1.02877490341706984e-01 -5.99514693092639384e-01 -1.02877490341706984e-01 -5.99514693092639384e-01 -4.28525817497540278e-04 1.64162791720368940e-03
5.05000000000000000e+09 -2.00677231590481878e-03 -1.12773451305426425e-03 -2.83945017376147024e-01 -5.37804334262213080e-01 -2.83945017376147024e-01 -5.37804334262213080e-01 -7.90609112629839651e-04 1.59023168533334422e-03
5.06000000000000000e+09 -1.20465568170354800e-03 -2.85118549742547115e-04 -4.36553293743794701e-01 -4.22714575839285012e-01 -4.36553293743794701e-01 -4.22714575839285012e-01 -9.01362875205378609e-04 3.51554688970126734e-04
5.07000000000000000e+09 7.83877930203773264e-04 -3.39513068942932526e-04 -5.45106290728678555e-01 -2.66645253286085904e-01 -5.45106290728678555e-01 -2.66645253286085904e-01 4.73351653694869287e-04 -4.13882168572025824e-04
5.08000000000000000e+09 -4.14466437509346892e-04 4.12926172341895187e-04 -6.00780382472997920e-01 -8.47345576492973818e-02 -6.00780382472997920e-01 -8.47345576492973818e-02 -3.68988694144911525e-04 4.51781025985911289e-04
5.09000000000000000e+09 2.07874866064450199e-04 6.48802082072731396e-04 -5.98740838948311649e-01 1.05939836809806912e-01 -5.98740838948311649e-01 1.05939836809806912e-01 -1.84053701071511514e-05 -5.42813552690150762e-04
5.10000000000000000e+09 7.33028480129827541e-04 -4.16441361178677819e-04 -5.33801209408515609e-01 2.84852429133027607e-01 -5.33801209408515609e-01 2.84852429133027607e-01 5.89483860223577612e-04 -2.15023437985972907e-04
5.11000000000000000e+09 1.02927863615330235e-04 8.45179061688479676e-04 -4.21603194849902607e-01 4.36179825180672109e-01 -4.21603194849902607e-01 4.36179825180672109e-01 1.06885963216687404e-04 5.90230849166528942e-04
5.12000000000000000e+09 -1.38966249117365324e-03 -1.64488942412065203e-04 -2.65279007522495613e-01 5.44695760469314005e-01 -2.65279007522495613e-01 5.44695760469314005e-01 -1.51348445695706024e-04 1.54493468883341726e-04
5.13000000000000000e+09 -1.97891201821544347e-04 -1.09591377200073418e-03 -8.24435067540816580e-02 6.00326253289645617e-01 -8.24435067540816580e-02 6.00326253289645617e-01 -2.04196073372329447e-04 -4.06395330843226826e-04
5.14000000000000000e+09 -8.97836472640160463e-04 -5.22013560476903811e-04 1.06140004846368333e-01 5.94710799444576721e-01 1.06140004846368333e-01 5.94710799444576721e-01 -5.43722443967817218e-04 -4.00835528244107195e-04
5.15000000000000000e+09 7.59190953467166196e-04 -6.65956256644834174e-04 2.84365374958078565e-01 5.32395642508111888e-01 2.84365374958078565e-01 5.32395642508111888e-01 -3.55142077936945494e-04 5.85086347682282014e-04
5.16000000000000000e+09 6.38697632137035886e-04 -3.64030852295341449e-04 4.35540987043008310e-01 4.18301440754732801e-01 4.35540987043008310e-01 4.18301440754732801e-01 2.61501830652701708e-04 -1.50720371184646218e-04
5.17000000000000000e+09 1.16702598095214344e-05 1.00215409750442240e-03 5.43703479835915826e-01 2.62800415824381739e-01 5.43703479835915826e-01 2.62800415824381739e-01 -1.25224845669516657e-03 6.69714161612761658e-04
5.18000000000000000e+09 1.22712229957004641e-05 -1.06315403575076733e-03 5.97891209143864510e-01 8.10304511502779740e-02 5.97891209143864510e-01 8.10304511502779740e-02 1.90644494653646697e-04 -5.33058632208156206e-05
5.19000000000000000e+09 -1.03921654607954652e-03 8.88101782510514095e-05 5.94181349175837759e-01 -1.08154455298483124e-01 5.94181349175837759e-01 -1.08154455298483124e-01 4.58068050543229438e-04 -1.02565132793026349e-03
5.20000000000000000e+09 9.84111619358294439e-04 3.78119796435381081e-04 5.30751201988697630e-01 -2.86135567163944671e-01 5.30751201988697630e-01 -2.86135567163944671e-01 -5.00063301178413832e-04 1.13820192439155845e-03
5.21000000000000000e+09 6.32103595302311314e-04 1.27039902472326246e-03 4.15575878859822223e-01 -4.35745703291096409e-01 4.15575878859822223e-01 -4.35745703291096409e-01 -6.13996306665417677e-04 1.44816849715950627e-04
5.22000000000000000e+09 -2.24954159396675683e-04 5.53846150550778098e-04 2.59990630277958046e-01 -5.43690480168970147e-01 2.59990630277958046e-01 -5.43690480168970147e-01 1.01228972160469482e-03 -4.27691467506118082e-04
5.23000000000000000e+09 6.74058113021250944e-04 -3.55815371619386733e-04 7.82883627776320701e-02 -5.96971558283758585e-01 7.82883627776320701e-02 -5.96971558283758585e-01 -1.52064543892871384e-03 1.23422565070562619e-04
5.24000000000000000e+09 -4.62843469116984570e-04 3.97151513648221063e-04 -1.08451125950585675e-01 -5.91726098544341883e-01 -1.08451125950585675e-01 -5.91726098544341883e-01 4.80369565600698189e-04 -1.29429370088907049e-03
5.25000000000000000e+09 9.95506781547135337e-04 -1.17699410539315650e-04 -2.86377755787477095e-01 -5.28419568291545128e-01 -2.86377755787477095e-01 -5.28419568291545128e-01 -7.57592878405917739e-04 -9.22316051656366857e-04
5.26000000000000000e+09 2.95487229945844035e-04 -7.92417007261644315e-04 -4.36883262495696090e-01 -4.14451256845760174e-01 -4.36883262495696090e-01 -4.14451256845760174e-01 -5.92921459531480953e-04 -8.82774526042891554e-04
5.27000000000000000e+09 -1.13782378814744059e-03 -8.73563451039050562e-04 -5.43254194797526235e-01 -2.59650393725444295e-01 -5.43254194797526235e-01 -2.59650393725444295e-01 -4.42695434596287996e-04 3.88937230867573492e-05
5.28000000000000000e+09 -4.07508315667746773e-04 -1.36626176722054135e-04 -5.94566880425297262e-01 -7.78037297853688553e-02 -5.94566880425297262e-01 -7.78037297853688553e-02 6.80329446469062456e-05 -1.04355032786758450e-03
5.29000000000000000e+09 2.45856104327334883e-04 -1.78297578501668231e-04 -5.90392177670925999e-01 1.08633794146182266e-01 -5.90392177670925999e-01 1.08633794146182266e-01 1.11981317087876567e-03 -7.02953424939279611e-07
5.30000000000000000e+09 -6.72809381998015375e-04 -5.64040533071397490e-04 -5.26714400813399819e-01 2.87166770450383912e-01 -5.26714400813399819e-01 2.87166770450383912e-01 -6.04562734648527453e-04 8.59265141828833624e-04
5.31000000000000000e+09 -9.80773576957369111e-05 1.04784348945248518e-03 -4.11957330454980952e-01 4.34737192599406352e-01 -4.11957330454980952e-01 4.34737192599406352e-01 -9.54776613502066702e-04 -5.94923025082613852e-04
5.32000000000000000e+09 -2.73337727013025264e-04 2.18931551474327719e-04 -2.57013818340623146e-01 5.41330197143246705e-01 -2.57013818340623146e-01 5.41330197143246705e-01 3.56739324421020824e-04 4.82231244854580199e-04
5.33000000000000000e+09 -1.58436027796756053e-04 6.45627669078750510e-05 -7.46588065721728034e-02 5.94838163702589795e-01 -7.46588065721728034e-02 5.94838163702589795e-01 1.33075553504981921e-03 -5.36567382582537673e-05
5.34000000000000000e+09 -1.55723066586739675e-03 1.16523878029619883e-03 1.11148116509778586e-01 5.89702363496613757e-01 1.11148116509778586e-01 5.89702363496613757e-01 3.91694439299146153e-04 -7.03329977693677145e-05
5.35000000000000000e+09 2.41868698836218097e-04 1.21064424713745474e-04 2.88690639657199100e-01 5.24632678920387230e-01 2.88690639657199100e-01 5.24632678920387230e-01 -2.02283059114657200e-03 -4.49558815676933895e-04
5.36000000000000000e+09 -7.59838076215532893e-04 3.60404247389367171e-05 4.37042169284886151e-01 4.10324771877736028e-01 4.37042169284886151e-01 4.10324771877736028e-01 8.59094572974817032e-04 -8.85254698928044162e-04
5.37000000000000000e+09 1.61607632117964444e-03 -3.30808457727644939e-04 5.42447072084928594e-01 2.54595508097747447e-01 5.42447072084928594e-01 2.54595508097747447e-01 -9.07735741331538700e-04 -2.21115193297350619e-04
5.38000000000000000e+09 7.31780622909255552e-04 -8.74943650537046962e-04 5.93188325254485616e-01 7.61633184974270377e-02 5.93188325254485616e-01 7.61633184974270377e-02 1.47609486187246078e-04 -1.53991612238055329e-03
5.39000000000000000e+09 3.96279252834532287e-05 3.77198094851027236e-04 5.86891918054949335e-01 -1.11318754317200883e-01 5.86891918054949335e-01 -1.11318754317200883e-01 -3.55992867195768499e-04 1.59632891263154254e-03
5.40000000000000000e+09 5.47997187236533290e-04 -1.43818740616306484e-05 5.23052669960860084e-01 -2.88779724157277595e-01 5.23052669960860084e-01 -2.88779724157277595e-01 1.52503481109666253e-04 2.09702531150162433e-04
5.41000000000000000e+09 3.43056942261157015e-04 8.00335465937581920e-04 4.07971102028922894e-01 -4.36068543215038906e-01 4.07971102028922894e-01 -4.36068543215038906e-01 -2.01789162704437151e-04 1.38689611588237735e-04
5.42000000000000000e+09 8.13909801683737003e-04 1.04186120375105332e-04 2.52093292383996859e-01 -5.41045955235908926e-01 2.52093292383996859e-01 -5.41045955235908926e-01 -4.75643098777222119e-04 1.20033081990848930e-03
5.43000000000000000e+09 -9.46478642870411039e-04 -4.15743984823712103e-05 7.36847316540575198e-02 -5.91117718758332744e-01 7.36847316540575198e-02 -5.91117718758332744e-01 1.91191415265664537e-03 4.50545072126747124e-04
5.44000000000000000e+09 -8.68895174923416417e-04 1.40356483125948599e-04 -1.12413593836716230e-01 -5.86653141477992413e-01 -1.12413593836716230e-01 -5.86653141477992413e-01 1.00435965405399740e-03 -1.44244960061058972e-06
5.45000000000000000e+09 -1.51172336813265801e-03 -1.00611456260973355e-03 -2.89752597696795067e-01 -5.21385470106345617e-01 -2.89752597696795067e-01 -5.21385470106345617e-01 -1.49587198771166826e-05 9.26569500695373100e-04
5.46000000000000000e+09 -6.98303557623527484e-04 6.88791073829279074e-04 -4.35626642984580870e-01 -4.07117872964995242e-01 -4.35626642984580870e-01 -4.07117872964995242e-01 9.66064781962138797e-04 1.29566170747105898e-03
5.47000000000000000e+09 4.98164914360708184e-04 -1.52236968880775344e-03 -5.40079378187800607e-01 -2.51796956735753696e-01 -5.40079378187800607e-01 -2.51796956735753696e-01 4.01176969359789428e-04 -2.75987454521689165e-04
5.48000000000000000e+09 2.48773184291065303e-04 8.05992339713912441e-04 -5.91873664777828323e-01 -7.32799258303376971e-02 -5.91873664777828323e-01 -7.32799258303376971e-02 -4.25720105414238953e-04 5.47860145447321670e-04
5.49000000000000000e+09 3.30805066417792695e-04 -2.40848526896351530e-05 -5.84024871185761518e-01 1.15148542287440092e-01 -5.84024871185761518e-01 1.15148542287440092e-01 2.28022294854138833e-04 4.76192053115344111e-04
5.50000000000000000e+09 6.29383649021449175e-04 -7.12969418490656473e-06 -5.21388405403872657e-01 2.88653537400487104e-01 -5.21388405403872657e-01 2.88653537400487104e-01 1.04772453764248141e-03 -1.74029042102514905e-05
5.51000000000000000e+09 -1.34894461904737427e-03 7.42583215459522838e-04 -4.04435989728790524e-01 4.34916367176340912e-01 -4.04435989728790524e-01 4.34916367176340912e-01 1.08256060612090218e-04 -4.50117344834718384e-04
5.52000000000000000e+09 -1.03457510647516834e-04 2.95718879974276569e-05 -2.49497501804100907e-01 5.40907862186436716e-01 -2.49497501804100907e-01 5.40907862186436716e-01 -3.98060822657653581e-04 -1.41226497872659488e-03
5.53000000000000000e+09 -5.17045870237849712e-04 4.06915132335253530e-04 -7.05384082200583712e-02 5.89896945559919117e-01 -7.05384082200583712e-02 5.89896945559919117e-01 1.21146248932513175e-04 1.25793749492195302e-03
5.54000000000000000e+09 -4.88041590168596486e-04 6.09355419369391653e-04 1.15675674956363689e-01 5.82559470657368572e-01 1.15675674956363689e-01 5.82559470657368572e-01 -6.14649844855396569e-04 1.36835785064485426e-04
5.55000000000000000e+09 -4.19419108354192837e-04 2.74738411037590531e-04 2.89692292100183990e-01 5.17402933871720982e-01 2.89692292100183990e-01 5.17402933871720982e-01 3.10270899264781369e-04 5.32099866793330108e-04
5.56000000000000000e+09 -2.26018186332513360e-04 2.24932668592427143e-04 4.35949099617727209e-01 4.01523568399754227e-01 4.35949099617727209e-01 4.01523568399754227e-01 1.13275462071053758e-03 -2.11732276841615806e-04
5.57000000000000000e+09 -3.44559844775311369e-04 1.16368786710294809e-03 5.39517531608265544e-01 2.48090121787520046e-01 5.39517531608265544e-01 2.48090121787520046e-01 -9.43312410213869570e-04 5.71477891417113983e-04
5.58000000000000000e+09 4.49025603529166345e-04 6.58544565044447811e-04 5.88440388819701066e-01 6.91010550651105088e-02 5.88440388819701066e-01 6.91010550651105088e-02 1.48237472099268120e-03 -3.02329768524397223e-04
5.59000000000000000e+09 -3.68979187097508566e-04 -2.27124621828634200e-04 5.80166986365132309e-01 -1.16321503909478860e-01 5.80166986365132309e-01 -1.16321503909478860e-01 7.35039678381220279e-04 1.38810892014121023e-04
5.60000000000000000e+09 2.80824485329870524e-04 4.53099950762962981e-04 5.16007863508212816e-01 -2.89556983074683028e-01 5.16007863508212816e-01 -2.89556983074683028e-01 -1.71856547422526043e-03 3.03049066751994670e-04
5.61000000000000000e+09 2.68023467639958053e-04 8.94732981054338324e-04 4.00505850288584320e-01 -4.36384879202963982e-01 4.00505850288584320e-01 -4.36384879202963982e-01 4.72520020868210123e-05 1.27492031209073555e-03
5.62000000000000000e+09 -5.64913876241739652e-04 6.44545375782659258e-06 2.46929349026008271e-01 -5.37738962700611944e-01 2.46929349026008271e-01 -5.37738962700611944e-01 -2.56748347957331556e-05 5.47316433628325795e-04
5.63000000000000000e+09 -1.90160552780513077e-04 8.40625353353755119e-04 6.63293224758782912e-02 -5.87144400254010712e-01 6.63293224758782912e-02 -5.87144400254010712e-01 -1.58608432623251157e-04 1.31714072838935410e-04
5.64000000000000000e+09 -7.92889979158346056e-04 -9.47973332851080017e-05 -1.16632203400600862e-01 -5.78003922499172207e-01 -1.16632203400600862e-01 -5.78003922499172207e-01 1.54435008451093118e-04 -1.39483635413896825e-04
5.65000000000000000e+09 -4.49606263891510116e-04 4.46952657646964554e-05 -2.91050947784479597e-01 -5.15022505790898144e-01 -2.91050947784479597e-01 -5.15022505790898144e-01 1.00339871841717771e-03 -9.56465121319756878e-05
5.66000000000000000e+09 7.63278681456821493e-05 9.25074865416789676e-04 -4.35550897541625126e-01 -3.98839581662235820e-01 -4.35550897541625126e-01 -3.98839581662235820e-01 1.29009169510333854e-03 1.99123487303582710e-04
5.67000000000000000e+09 2.39119691321601187e-04 -9.41597263134971431e-05 -5.36654548776054785e-01 -2.44305469969553934e-01 -5.36654548776054785e-01 -2.44305469969553934e-01 -2.71822919591927956e-04 1.69041392541063656e-04
5.68000000000000000e+09 -2.92525058167577331e-04 -8.05579021050876381e-04 -5.85638806411199586e-01 -6.57721069574297990e-02 -5.85638806411199586e-01 -6.57721069574297990e-02 -5.70100569960752971e-05 1.50283423960051541e-03
5.69000000000000000e+09 2.30403144880768037e-04 -2.60990731031687882e-04 -5.77656835958405002e-01 1.18285730166498418e-01 -5.77656835958405002e-01 1.18285730166498418e-01 -2.33872975403979950e-05 -1.38863802131439901e-03
5.70000000000000000e+09 -1.17772590636779878e-04 -1.54655789418189395e-03 -5.13249505346618173e-01 2.90966880093940339e-01 -5.13249505346618173e-01 2.90966880093940339e-01 8.98603547635820903e-04 4.46337099966985799e-04
5.71000000000000000e+09 -4.47310991355230408e-04 -7.23936191884641533e-04 -3.97665750971086751e-01 4.34690764183061462e-01 -3.97665750971086751e-01 4.34690764183061462e-01 3.33535723046011611e-05 7.56652908643087481e-06
5.72000000000000000e+09 -4.87685071893054190e-04 1.11305816376451507e-03 -2.41598087095564934e-01 5.36145515163890307e-01 -2.41598087095564934e-01 5.36145515163890307e-01 4.29307559905189732e-04 -9.44678516512483836e-04
5.73000000000000000e+09 -4.38613114192466650e-04 2.54500058115110657e-04 -6.51341666120303919e-02 5.84627261104874840e-01 -6.51341666120303919e-02 5.84627261104874840e-01 4.31349425009460764e-04 7.01787051440252280e-04
5.74000000000000000e+09 -5.15728809802814127e-04 5.68018051722544320e-04 1.18670355773308894e-01 5.75734361472962641e-01 1.18670355773308894e-01 5.75734361472962641e-01 -1.19827901516276710e-03 1.00785645933391000e-03
5.75000000000000000e+09 4.75956462608479228e-04 1.35434209035372529e-03 2.90774507187029740e-01 5.10792743368050139e-01 2.90774507187029740e-01 5.10792743368050139e-01 -8.58236367268455191e-04 -1.27576823050716028e-03
5.76000000000000000e+09 4.63192290772025564e-04 -9.48852071147234292e-04 4.35887718736163332e-01 3.95277953039938734e-01 4.35887718736163332e-01 3.95277953039938734e-01 -8.52235733296301625e-04 1.26085516113020137e-03
5.77000000000000000e+09 -4.57294950674563610e-04 -1.80043108507656701e-04 5.36602772159925689e-01 2.40527589169050288e-01 5.36602772159925689e-01 2.40527589169050288e-01 1.23096767821058201e-04 7.53542711085234372e-04
5.78000000000000000e+09 -3.53085984969363719e-04 8.58906800611255127e-04 5.83913952891056631e-01 6.35214534019751392e-02 5.83913952891056631e-01 6.35214534019751392e-02 2.69278685402640533e-04 4.23167381706451992e-04
5.79000000000000000e+09 -8.04390454424688730e-04 3.88303067269038646e-05 5.73697815615884399e-01 -1.21807742523436721e-01 5.73697815615884399e-01 -1.21807742523436721e-01 7.61518018534443060e-04 -1.73938657303994979e-04
5.80000000000000000e+09 1.21485250911259712e-03 7.25993138914272310e-04 5.09286898115579922e-01 -2.91038137133439068e-01 5.09286898115579922e-01 -2.91038137133439068e-01 -1.57956883922272945e-04 -9.18050635930477339e-04
5.81000000000000000e+09 -5.05169439860020343e-04 -8.49799078129808544e-04 3.93066325603740496e-01 -4.34626783775930170e-01 3.93066325603740496e-01 -4.34626783775930170e-01 7.19553464401757881e-04 9.59468609066325149e-05
5.82000000000000000e+09 8.67086837752547657e-04 -6.49973386110665554e-04 2.38934383221920649e-01 -5.33887944306300599e-01 2.38934383221920649e-01 -5.33887944306300599e-01 2.60807839226080229e-04 -7.06147798218712984e-04
5.83000000000000000e+09 -1.04298308504803842e-03 3.03466012280597449e-04 6.14521582921646742e-02 -5.82238838047439478e-01 6.14521582921646742e-02 -5.82238838047439478e-01 1.01066687374138709e-03 9.59091751966536479e-04
5.84000000000000000e+09 -1.21367929356778551e-04 -4.44392655810466801e-04 -1.21404252870639093e-01 -5.72930221184976718e-01 -1.21404252870639093e-01 -5.72930221184976718e-01 6.12322829211707650e-04 1.30260243640419895e-04
5.85000000000000000e+09 5.56389888289308878e-04 -1.00376817612939529e-03 -2.92827437860260609e-01 -5.06965939700033341e-01 -2.92827437860260609e-01 -5.06965939700033341e-01 -4.18602335665586270e-04 -1.16465489853575567e-04
5.86000000000000000e+09 -1.55067164682992967e-03 8.53613649364240142e-04 -4.35995623594245707e-01 -3.90667725194208226e-01 -4.35995623594245707e-01 -3.90667725194208226e-01 -2.40430231874887997e-04 -1.89641812206226478e-04
5.87000000000000000e+09 4.83774949291594463e-04 -2.54313818084998388e-04 -5.34486456520607223e-01 -2.37358182041433552e-01 -5.34486456520607223e-01 -2.37358182041433552e-01 7.86033606116929000e-04 -9.20804929661893476e-04
5.88000000000000000e+09 -8.82858336004392532e-04 -3.76702842936850772e-04 -5.82797026845976784e-01 -5.93298690434304055e-02 -5.82797026845976784e-01 -5.93298690434304055e-02 4.02226735004296840e-04 3.44350846385418127e-04
5.89000000000000000e+09 1.23519172216299635e-03 4.42652062754228710e-04 -5.71212065859547424e-01 1.22066438498961344e-01 -5.71212065859547424e-01 1.22066438498961344e-01 -4.08538461525916833e-04 3.96845505339781142e-04
5.90000000000000000e+09 6.03595146326740286e-04 1.36930937714359939e-05 -5.04118254617361150e-01 2.93179816366167356e-01 -5.04118254617361150e-01 2.93179816366167356e-01 -8.78637817284416288e-04 1.97664323863550165e-04
5.91000000000000000e+09 -2.63408762785247370e-04 -6.69185852692915392e-05 -3.88661309416690748e-01 4.34597996205346615e-01 -3.88661309416690748e-01 4.34597996205346615e-01 1.52992033549332652e-04 1.45963931204322783e-03
5.92000000000000000e+09 -5.83006633282007625e-04 -2.45474976449750457e-04 -2.35744360630060656e-01 5.34266991915574696e-01 -2.35744360630060656e-01 5.34266991915574696e-01 -6.43911281865772742e-04 -1.54573880744387484e-03
5.93000000000000000e+09 -1.05059135113427034e-03 1.28198890443330057e-03 -5.85037733250017566e-02 5.80131293337219134e-01 -5.85037733250017566e-02 5.80131293337219134e-01 -9.33929334337871850e-04 -1.09926960406522378e-03
5.94000000000000000e+09 -1.05874560770411507e-04 -6.86111021877079783e-04 1.23025656326187810e-01 5.69593043349232997e-01 1.23025656326187810e-01 5.69593043349232997e-01 2.81420107495017769e-04 1.11092501961451666e-04
5.95000000000000000e+09 -2.76997577136531509e-04 -1.23144834395527469e-04 2.93609862077262584e-01 5.03025745379497513e-01 2.93609862077262584e-01 5.03025745379497513e-01 -1.11499254483885023e-03 -7.31988945735244010e-05
5.96000000000000000e+09 1.34295646891142365e-04 1.29273009850413775e-03 4.34609823166201281e-01 3.87706706308141802e-01 4.34609823166201281e-01 3.87706706308141802e-01 -5.95898853224204484e-04 -6.98252047271430377e-04
5.97000000000000000e+09 2.59671523984503140e-04 -9.08211675784655363e-04 5.33882337652581085e-01 2.34379489738898134e-01 5.33882337652581085e-01 2.34379489738898134e-01 1.14827896897156138e-03 -2.56682891301200590e-04
5.98000000000000000e+09 9.79657212634196643e-05 6.86440146110605325e-05 5.79324838188072011e-01 5.72854437368147257e-02 5.79324838188072011e-01 5.72854437368147257e-02 -6.97569910660052563e-04 1.33826188406299950e-04
5.99000000000000000e+09 -5.10944773827734359e-04 4.20239462240118563e-04 5.69031059934268613e-01 -1.23731234583398297e-01 5.69031059934268613e-01 -1.23731234583398297e-01 -3.48951869331511576e-04 8.95998645134964177e-04
6.00000000000000000e+09 1.24333823237704998e-03 4.68401143285498772e-04 5.00651935870712994e-01 -2.94246052818702974e-01 5.00651935870712994e-01 -2.94246052818702974e-01 -1.33796551900971177e-04 8.01899060842871771e-04
6.01000000000000000e+09 -1.55347623415536847e-04 1.93449617035249742e-04 3.85211095613483601e-01 -4.34519845865666332e-01 3.85211095613483601e-01 -4.34519845865666332e-01 -2.32498279222655721e-04 -4.72035175443060568e-04
6.02000000000000000e+09 -1.51101900803022671e-04 8.25897206981193656e-05 2.32217748035568772e-01 -5.32681965044713657e-01 2.32217748035568772e-01 -5.32681965044713657e-01 -7.54737077060247785e-05 2.19371553090059838e-03
6.03000000000000000e+09 7.17189408602710498e-04 -4.74498745662169823e-04 5.76285412057851651e-02 -5.78526550051908894e-01 5.76285412057851651e-02 -5.78526550051908894e-01 5.13480725733229991e-04 -1.60768226510658190e-03
6.04000000000000000e+09 2.70672728775750101e-04 2.51073468661677541e-04 -1.26377001949097761e-01 -5.66948340598879219e-01 -1.26377001949097761e-01 -5.66948340598879219e-01 -3.92253507934522798e-04 4.44841982877035747e-04
6.05000000000000000e+09 -1.20426955509055642e-03 1.44213179202306463e-05 -2.94399991078352852e-01 -4.99201334386996098e-01 -2.94399991078352852e-01 -4.99201334386996098e-01 -1.04948270179545445e-03 -1.37923218339561964e-03
6.06000000000000000e+09 4.76778000138778117e-04 1.94996041436835342e-04 -4.35270534057464464e-01 -3.83180189632556734e-01 -4.35270534057464464e-01 -3.83180189632556734e-01 2.50619817067965851e-04 -3.13017311912104721e-04
6.07000000000000000e+09 3.65500997170707870e-04 3.10675788032371727e-04 -5.33287157859195782e-01 -2.30262809465702267e-01 -5.33287157859195782e-01 -2.30262809465702267e-01 -5.62307552194554142e-04 4.28219225662286737e-04
6.08000000000000000e+09 2.52594224225875146e-04 -3.69852471354108789e-04 -5.76557887294877780e-01 -5.44957214310382090e-02 -5.76557887294877780e-01 -5.44957214310382090e-02 5.64705560327035294e-04 -1.52130260770136838e-03
6.09000000000000000e+09 -2.41991281244763258e-04 -6.63484425867686268e-04 -5.65261552994354877e-01 1.27308616151210807e-01 -5.65261552994354877e-01 1.27308616151210807e-01 1.26192487157005960e-03 -6.85436792504978297e-04
6.10000000000000000e+09 1.40903789887278228e-04 1.51671868148174150e-03 -4.97470650335436526e-01 2.95336498966594418e-01 -4.97470650335436526e-01 2.95336498966594418e-01 -1.86117832585270794e-04 -3.11704190694693756e-04
6.11000000000000000e+09 -1.06393022020083352e-03 7.51383534738117825e-04 -3.81771013834641015e-01 4.34153079519793816e-01 -3.81771013834641015e-01 4.34153079519793816e-01 3.85725270426390222e-04 -3.10145998031438532e-04
6.12000000000000000e+09 6.66826685551899999e-04 2.91264590888436062e-04 -2.29397413232630631e-01 5.30718229693856181e-01 -2.29397413232630631e-01 5.30718229693856181e-01 -4.99669953672940534e-04 -7.53600677755609768e-04
6.13000000000000000e+09 -1.52786973486013938e-03 8.07834872845478923e-05 -5.27152323735410044e-02 5.76617526127285895e-01 -5.27152323735410044e-02 5.76617526127285895e-01 5.75103753979411768e-04 -3.14342959377091177e-04
6.14000000000000000e+09 -4.75124587765567282e-04 -3.60699755734234060e-04 1.27283536557813520e-01 5.63383370537377970e-01 1.27283536557813520e-01 5.63383370537377970e-01 -1.52071846264765419e-04 7.94067988354386044e-04
6.15000000000000000e+09 1.12452461920035723e-03 3.65781234108257817e-04 2.96266535995314162e-01 4.96198011974617881e-01 2.96266535995314162e-01 4.96198011974617881e-01 8.06130785790841421e-04 7.46042511614744747e-04
6.16000000000000000e+09 -1.04077099598234404e-04 5.66162077866829132e-04 4.34188882807499177e-01 3.79428871146925195e-01 4.34188882807499177e-01 3.79428871146925195e-01 7.78540703181392220e-04 2.13772183663831660e-04
6.17000000000000000e+09 -1.17236558696945663e-03 1.99655327520852614e-05 5.30991773726192995e-01 2.25933561604202360e-01 5.30991773726192995e-01 2.25933561604202360e-01 -9.18932816533366221e-04 -1.00146582197958183e-03
6.18000000000000000e+09 5.55088777698790480e-04 1.69128310955845326e-03 5.74968450633287387e-01 5.20237717815449918e-02 5.74968450633287387e-01 5.20237717815449918e-02 -6.28639178864913938e-04 4.50316730276865485e-04
6.19000000000000000e+09 1.54288010564177555e-04 2.59661316227015337e-04 5.61372195735343249e-01 -1.28097298701025430e-01 5.61372195735343249e-01 -1.28097298701025430e-01 -7.42320881356163271e-04 -8.69677742402485423e-05
6.20000000000000000e+09 -2.79863189169612524e-04 4.12928920886731251e-04 4.94053224914131728e-01 -2.96244875998876001e-01 4.94053224914131728e-01 -2.96244875998876001e-01 6.96895269905248652e-04 -3.84259828547520586e-05
6.21000000000000000e+09 1.47344262446814618e-03 1.35715319422279409e-04 3.78545411856374137e-01 -4.33861989621760757e-01 3.78545411856374137e-01 -4.33861989621760757e-01 -5.72925786364946894e-06 -5.55709365522378033e-04
6.22000000000000000e+09 5.24173207156622000e-04 -1.61191775367603004e-03 2.25227882313750599e-01 -5.29765132870681388e-01 2.25227882313750599e-01 -5.29765132870681388e-01 3.14273669498689185e-04 5.66910429611169778e-04
6.23000000000000000e+09 -1.33523722753300911e-03 -3.63836852668472806e-04 4.98858071112501800e-02 -5.74149380430975076e-01 4.98858071112501800e-02 -5.74149380430975076e-01 -1.09740922828968461e-03 1.98398299327695842e-04
6.24000000000000000e+09 -1.35920031929640038e-03 -1.08228363817729580e-03 -1.28819106616585410e-01 -5.60300470930446881e-01 -1.28819106616585410e-01 -5.60300470930446881e-01 -2.22226286859737498e-04 1.25357599785131790e-03
6.25000000000000000e+09 1.10016239849776106e-03 -6.76927010876047803e-04 -2.95433762138218203e-01 -4.93289083076259294e-01 -2.95433762138218203e-01 -4.93289083076259294e-01 -5.42932637855070451e-05 6.61289646000080920e-05
6.26000000000000000e+09 -3.04271153343240505e-04 -2.78451208323537112e-04 -4.34804475537080959e-01 -3.77679773272649399e-01 -4.34804475537080959e-01 -3.77679773272649399e-01 -1.73583819952171075e-03 -1.35874541070646468e-03
6.27000000000000000e+09 -3.87991619839754087e-04 -1.17604950727270464e-04 -5.29511230797636734e-01 -2.22783787064220917e-01 -5.29511230797636734e-01 -2.22783787064220917e-01 -4.86823251548421738e-04 1.01812260678950947e-03
6.28000000000000000e+09 -6.97908159953790895e-04 3.84240381405380254e-04 -5.72412429923309873e-01 -5.05209361689140865e-02 -5.72412429923309873e-01 -5.05209361689140865e-02 -2.73402559672833044e-04 -1.53955849474626425e-03
6.29000000000000000e+09 8.39944949181759904e-05 2.92230090976605087e-04 -5.59892200744349644e-01 1.29806139110970803e-01 -5.59892200744349644e-01 1.29806139110970803e-01 1.31644654638553901e-03 -2.89771829110151439e-04
6.30000000000000000e+09 3.69300028536548427e-04 2.16729474112046502e-04 -4.91300883275268607e-01 2.97616631309932322e-01 -4.91300883275268607e-01 2.97616631309932322e-01 -5.67220558988257273e-04 -4.54040477137225519e-04
6.31000000000000000e+09 -6.98357621742601558e-04 4.87110425329879732e-04 -3.74490958044429278e-01 4.32926479690302457e-01 -3.74490958044429278e-01 4.32926479690302457e-01 -3.04070715931765783e-04 1.30599048149325389e-04
6.32000000000000000e+09 2.02968868336131574e-05 2.57522107149073189e-04 -2.21922563298381337e-01 5.28570018618097603e-01 -2.21922563298381337e-01 5.28570018618097603e-01 -3.98636752566247990e-04 3.18462023521880449e-04
6.33000000000000000e+09 1.65715741045104357e-04 -6.07789081214398777e-04 -4.90258401266981808e-02 5.71390953580416250e-01 -4.90258401266981808e-02 5.71390953580416250e-01 -6.95855372794782130e-04 -5.19055586529881883e-04
6.34000000000000000e+09 -1.38022192900159055e-03 -7.25026832020270965e-04 1.31029525717189704e-01 5.56635617303283592e-01 1.31029525717189704e-01 5.56635617303283592e-01 -3.16775074781422633e-04 3.43936946808729002e-04
6.35000000000000000e+09 1.22256218041131605e-03 -1.38111392517815105e-04 2.96754850757394106e-01 4.89334465345007130e-01 2.96754850757394106e-01 4.89334465345007130e-01 8.22702641726157861e-05 -9.71880653046969419e-04
6.36000000000000000e+09 2.72999489151560951e-04 1.97218628218114852e-04 4.34968793840179890e-01 3.73805125928912574e-01 4.34968793840179890e-01 3.73805125928912574e-01 2.98139701781283204e-04 2.39195910852700382e-04
6.37000000000000000e+09 5.01877991019002937e-04 7.06748595803301759e-04 5.29226986939753341e-01 2.20507140367910720e-01 5.29226986939753341e-01 2.20507140367910720e-01 -1.20595970256607773e-03 -4.30062075123488529e-04
6.38000000000000000e+09 -4.33762136770274927e-04 -5.65316446175343436e-05 5.69793272022172892e-01 4.71157630001778419e-02 5.69793272022172892e-01 4.71157630001778419e-02 -7.37368043450466768e-05 -1.13078736699309619e-04
6.39000000000000000e+09 -4.74226884059145669e-04 -1.87881244790315672e-03 5.56944047430652178e-01 -1.31947852514916836e-01 5.56944047430652178e-01 -1.31947852514916836e-01 -4.65147664451670778e-04 -8.07977556877580486e-05
6.40000000000000000e+09 -4.88242880805426973e-04 6.45097397712426110e-05 4.88088075139626376e-01 -2.96915770936294121e-01 4.88088075139626376e-01 -2.96915770936294121e-01 -5.51859719053477164e-04 -1.64017956109461973e-04
6.41000000000000000e+09 -7.70312737464034602e-04 -4.54208530544893173e-04 3.70615255829510437e-01 -4.34664103050821260e-01 3.70615255829510437e-01 -4.34664103050821260e-01 -1.26953137704810380e-04 5.56054848847599577e-04
6.42000000000000000e+09 6.83983316662085646e-04 1.33546434139304856e-03 2.19513688192117057e-01 -5.27285389089186540e-01 2.19513688192117057e-01 -5.27285389089186540e-01 2.81722437320885272e-04 -1.35884425662682494e-03
6.43000000000000000e+09 4.73724142848300605e-05 4.92053798462425301e-04 4.46249823180657340e-02 -5.69405580458540617e-01 4.46249823180657340e-02 -5.69405580458540617e-01 -1.03204126826507450e-04 8.96639813843420083e-05
6.44000000000000000e+09 -9.00006421957945651e-04 -1.30342307050296778e-03 -1.33076986834153921e-01 -5.54727106764334899e-01 -1.33076986834153921e-01 -5.54727106764334899e-01 6.69071018884603765e-04 -9.52980196947671469e-04
6.45000000000000000e+09 -1.18184304901013722e-03 1.39081516260693844e-03 -2.97246416096276000e-01 -4.87160428249644173e-01 -2.97246416096276000e-01 -4.87160428249644173e-01 -1.56075605325694828e-03 2.26492861964783227e-04
6.46000000000000000e+09 -5.84406790467904553e-04 2.68572132926358305e-04 -4.34537079938755066e-01 -3.69960928277730805e-01 -4.34537079938755066e-01 -3.69960928277730805e-01 -5.44822740321329125e-04 -9.54320618982892324e-05
6.47000000000000000e+09 -2.89644261224976309e-04 1.81191803848887553e-04 -5.25822990107305932e-01 -2.16958550955820589e-01 -5.25822990107305932e-01 -2.16958550955820589e-01 -7.49648608727040348e-04 1.05209194969775664e-03
6.48000000000000000e+09 -6.92258152765260685e-04 6.57011476310371666e-04 -5.68412614394388727e-01 -4.42264901726325405e-02 -5.68412614394388727e-01 -4.42264901726325405e-02 -4.30948367553232541e-04 -1.42187760188851750e-05
6.49000000000000000e+09 -4.94616851154985600e-04 6.03213992458501245e-04 -5.54265273250220236e-01 1.33336284877059258e-01 -5.54265273250220236e-01 1.33336284877059258e-01 1.35377739098165619e-04 -3.65380136684713408e-04
6.50000000000000000e+09 -1.38164577476086698e-04 3.23467920327177828e-04 -4.83790484831890910e-01 2.99710729147339372e-01 -4.83790484831890910e-01 2.99710729147339372e-01 8.27276197161521429e-04 3.76727792139496670e-04
6.51000000000000000e+09 -1.14541176169177393e-03 -1.24894616935473739e-03 -3.67075377475824083e-01 4.32720432599724203e-01 -3.67075377475824083e-01 4.32720432599724203e-01 3.17170998591419868e-04 5.00990484635650823e-04
6.52000000000000000e+09 8.51043371021789033e-04 -9.77175353942942061e-04 -2.15927514718363939e-01 5.25916361631491580e-01 -2.15927514718363939e-01 5.25916361631491580e-01 4.13649045058479554e-04 -1.33613942996516034e-03
6.53000000000000000e+09 3.54380922535509199e-04 -7.58386408787765221e-05 -4.15449853150582638e-02 5.65632410126306495e-01 -4.15449853150582638e-02 5.65632410126306495e-01 -4.73226566636428681e-04 4.19309158783654498e-04
6.54000000000000000e+09 -4.66914225396125452e-04 -5.56283801162598692e-04 1.34714818428859517e-01 5.51817455646689159e-01 1.34714818428859517e-01 5.51817455646689159e-01 9.16222074988393706e-04 1.48645261570574993e-03
6.55000000000000000e+09 1.03991799744261051e-03 1.05213080048050423e-03 2.98105977089954510e-01 4.82304157762653396e-01 2.98105977089954510e-01 4.82304157762653396e-01 3.43682960949987925e-04 4.08823742359197496e-04
6.56000000000000000e+09 -5.43115330351654066e-05 7.58385291769065597e-04 4.33264725854087762e-01 3.66483347465504650e-01 4.33264725854087762e-01 3.66483347465504650e-01 3.50310370100356718e-04 -6.29918650955536147e-04
6.57000000000000000e+09 1.28583720315678302e-03 -1.48644742361135585e-04 5.25743832464923844e-01 2.14902516314395053e-01 5.25743832464923844e-01 2.14902516314395053e-01 -3.46661803565057275e-04 5.31329602521853029e-04
6.58000000000000000e+09 -4.66167655102953083e-04 -1.70767061750725200e-05 5.65962448292620768e-01 4.14641393779485862e-02 5.65962448292620768e-01 4.14641393779485862e-02 1.66622615345685300e-04 9.43669758484259945e-04
6.59000000000000000e+09 7.84893697884138332e-04 -2.10318038465075879e-03 5.51347694843675185e-01 -1.35335471091276166e-01 5.51347694843675185e-01 -1.35335471091276166e-01 1.66218335724920696e-04 9.60536833175117284e-05
6.60000000000000000e+09 4.20231626900263548e-04 -1.45491646527174529e-03 4.82312455551336450e-01 -2.97863846619563111e-01 4.82312455551336450e-01 -2.97863846619563111e-01 9.10725681544346491e-04 5.11306369154605972e-04
6.61000000000000000e+09 -6.43644992108486692e-04 2.73728863356643656e-04 3.63743033913462188e-01 -4.33270601353789031e-01 3.63743033913462188e-01 -4.33270601353789031e-01 -9.70217885815409520e-04 -2.86171339537933951e-04
6.62000000000000000e+09 -1.24662864300276871e-03 5.60698016257941598e-04 2.12962452716826262e-01 -5.24780724682821442e-01 2.12962452716826262e-01 -5.24780724682821442e-01 -8.91597754330081737e-04 -1.01692661652497129e-03
6.63000000000000000e+09 4.75999311121944567e-04 6.93255109401144979e-04 3.93022930899402448e-02 -5.64129239413752925e-01 3.93022930899402448e-02 -5.64129239413752925e-01 6.68008703638263098e-04 -1.13954031922142759e-03
6.64000000000000000e+09 4.38970762358479628e-04 5.22459532578177272e-04 -1.36580007895002575e-01 -5.49032238776348325e-01 -1.36580007895002575e-01 -5.49032238776348325e-01 3.10019819203094765e-04 -1.27344295403313055e-03
6.65000000000000000e+09 -9.22898405541139311e-04 -2.51380451802102399e-04 -3.01455758640301552e-01 -4.79192634349202784e-01 -3.01455758640301552e-01 -4.79192634349202784e-01 -4.09753764170638719e-04 3.69588800068286808e-04
6.66000000000000000e+09 2.89546456742135496e-04 1.54068104083547380e-03 -4.34122951260801360e-01 -3.63086649501772940e-01 -4.34122951260801360e-01 -3.63086649501772940e-01 4.33248575825624551e-04 -8.60717507939372413e-04
6.67000000000000000e+09 3.93681100644548252e-04 -9.70367382295111015e-04 -5.23985280297080136e-01 -2.11524022510865162e-01 -5.23985280297080136e-01 -2.11524022510865162e-01 1.53344575953015587e-04 1.08603545498489712e-04
6.68000000000000000e+09 -9.73056290926242978e-05 -1.26121071051806324e-03 -5.63350189610162588e-01 -3.82506695584982140e-02 -5.63350189610162588e-01 -3.82506695584982140e-02 -9.31896582549000233e-04 -5.55619787520590875e-04
6.69000000000000000e+09 7.11836256040884545e-04 -1.63278040264125060e-04 -5.47283037128745931e-01 1.37172982484490780e-01 -5.47283037128745931e-01 1.37172982484490780e-01 3.45661577128663689e-04 -7.36115859480650572e-04
6.70000000000000000e+09 -5.66688876326701179e-04 -7.54836921245218722e-04 -4.78954938385225848e-01 3.00110991935549964e-01 -4.78954938385225848e-01 3.00110991935549964e-01 8.35221822916537245e-04 -4.88575309569428350e-04
6.71000000000000000e+09 -1.08050236326614145e-03 3.02329151896418727e-04 -3.61690423858655907e-01 4.33082706941916029e-01 -3.61690423858655907e-01 4.33082706941916029e-01 -1.16711708566103375e-04 3.45892798072382581e-04
6.72000000000000000e+09 1.38585692577043582e-04 -1.11642728018968040e-03 -2.09416751040927968e-01 5.22429060825712832e-01 -2.09416751040927968e-01 5.22429060825712832e-01 -5.10767355690011730e-05 3.99519737987987053e-04
6.73000000000000000e+09 -1.05096671886025167e-03 -4.56554179564679443e-04 -3.75992147875100977e-02 5.63363606528929917e-01 -3.75992147875100977e-02 5.63363606528929917e-01 -1.01650849215843754e-04 -3.85485949447445712e-04
6.74000000000000000e+09 3.42434719942125957e-04 -4.82258285633310030e-04 1.38530625672429825e-01 5.45415287837738516e-01 1.38530625672429825e-01 5.45415287837738516e-01 7.65546158069976791e-04 3.74785449190180803e-04
6.75000000000000000e+09 5.57326995981870894e-04 -7.44797721044313074e-04 2.99501210085763969e-01 4.75040067930827425e-01 2.99501210085763969e-01 4.75040067930827425e-01 1.03542743697649137e-05 -1.00195101219929935e-03
6.76000000000000000e+09 2.75337430822649755e-04 9.06086634344610434e-04 4.32477563073138171e-01 3.61060777861431259e-01 4.32477563073138171e-01 3.61060777861431259e-01 1.03183669979455407e-03 2.35300145264574704e-07
6.77000000000000000e+09 -4.25794738046180712e-04 -9.17066764117858090e-04 5.21777983354644648e-01 2.07521524744471331e-01 5.21777983354644648e-01 2.07521524744471331e-01 -1.29217455584463496e-03 1.36897411790764330e-04
6.78000000000000000e+09 -3.66175827987808521e-04 4.41302278468776329e-04 5.60864516700097626e-01 3.65146052581899819e-02 5.60864516700097626e-01 3.65146052581899819e-02 -3.00316057218803333e-04 4.63476064207145086e-06
6.79000000000000000e+09 -1.59747417525867301e-03 8.62791979329263612e-05 5.44613039991249770e-01 -1.38872594358775414e-01 5.44613039991249770e-01 -1.38872594358775414e-01 7.84094070985376476e-04 2.68947763930933552e-04
6.80000000000000000e+09 -4.83562571975821784e-04 -1.06436909883310653e-03 4.75028985284176752e-01 -3.00683378619498620e-01 4.75028985284176752e-01 -3.00683378619498620e-01 -4.62147527638324355e-04 6.67529021920084276e-04
6.81000000000000000e+09 -6.04368943286742646e-04 7.43393609488737545e-04 3.59047894407204748e-01 -4.31914904401129507e-01 3.59047894407204748e-01 -4.31914904401129507e-01 4.95739383687564283e-04 1.25331099836668592e-04
6.82000000000000000e+09 6.12584018046271619e-04 1.01979509558454396e-03 2.08208302701495235e-01 -5.22751958274926154e-01 2.08208302701495235e-01 -5.22751958274926154e-01 -6.32948866381205492e-06 -7.20188316966260717e-04
6.83000000000000000e+09 -1.75479335725102183e-05 6.26985022877353916e-04 3.49784732579565202e-02 -5.59771419790679237e-01 3.49784732579565202e-02 -5.59771419790679237e-01 1.01496512355994401e-03 1.66463960844308762e-04
6.84000000000000000e+09 6.67978411469054420e-04 3.13338286941634869e-04 -1.40715329239293224e-01 -5.43122584813603759e-01 -1.40715329239293224e-01 -5.43122584813603759e-01 -5.81736948394423990e-04 6.26310142702390959e-04
6.85000000000000000e+09 2.64880082841091678e-04 -6.19237370175549089e-04 -3.00804999751169422e-01 -4.73228026577780014e-01 -3.00804999751169422e-01 -4.73228026577780014e-01 3.32037276954539088e-04 -7.30270116701686386e-04
6.86000000000000000e+09 3.88604646731498509e-04 8.92962027327533973e-04 -4.32698496369851859e-01 -3.56476829241176629e-01 -4.32698496369851859e-01 -3.56476829241176629e-01 4.36078273846026104e-04 3.62470772854736037e-04
6.87000000000000000e+09 4.55811123491522540e-04 1.94912781424848541e-04 -5.22052331565008187e-01 -2.04823055260339948e-01 -5.22052331565008187e-01 -2.04823055260339948e-01 -8.89317826046423358e-04 2.87281060288851991e-05
6.88000000000000000e+09 1.67520551481883646e-04 -7.20205547233377855e-05 -5.59339632890630267e-01 -3.37888428514515268e-02 -5.59339632890630267e-01 -3.37888428514515268e-02 -1.01798402928857633e-03 2.62347549176960486e-04
6.89000000000000000e+09 5.47608005947641027e-04 1.39965326110521389e-03 -5.41507734508364758e-01 1.41584218296486819e-01 -5.41507734508364758e-01 1.41584218296486819e-01 9.86207650360726440e-04 -3.59264925424849526e-04
6.90000000000000000e+09 -3.77985710504025345e-05 -5.04414024847256752e-04 -4.71370424843184754e-01 3.01179155702448187e-01 -4.71370424843184754e-01 3.01179155702448187e-01 -1.02087246599730425e-03 6.27732337416194580e-04
6.91000000000000000e+09 9.97470673873531062e-04 6.35446703975328431e-05 -3.54416628879363094e-01 4.31268755847537100e-01 -3.54416628879363094e-01 4.31268755847537100e-01 6.31778282401506091e-04 5.62524946407871244e-04
6.92000000000000000e+09 -1.77920260376726640e-04 -1.13664234739573804e-03 -2.03609405657370651e-01 5.22099157274277470e-01 -2.03609405657370651e-01 5.22099157274277470e-01 2.29857675257266801e-04 -2.91249012046422443e-04
6.93000000000000000e+09 -5.38763809152982076e-04 -5.70453814279472038e-04 -3.29870450241350824e-02 5.56845339375076964e-01 -3.29870450241350824e-02 5.56845339375076964e-01 1.40872092526752343e-03 8.74967469408389369e-04
6.94000000000000000e+09 2.37790123393906460e-04 1.51739090046288023e-03 1.41245441888165901e-01 5.40281981495414509e-01 1.41245441888165901e-01 5.40281981495414509e-01 -1.01300719003477829e-03 9.69531797347443420e-06
6.95000000000000000e+09 -8.39312327434609527e-04 2.62210405593508403e-04 3.02089036473200512e-01 4.69055875104542219e-01 3.02089036473200512e-01 4.69055875104542219e-01 -6.85618021682146347e-04 2.23875757911916096e-04
6.96000000000000000e+09 -7.74773975082505384e-04 1.39320577984186861e-03 4.32086600706117929e-01 3.53352178518406279e-01 4.32086600706117929e-01 3.53352178518406279e-01 2.44919653369643020e-04 4.03438452303112440e-04
6.97000000000000000e+09 8.98628377441706527e-04 -5.91345587179828588e-04 5.19523158537963603e-01 2.00786301169239290e-01 5.19523158537963603e-01 2.00786301169239290e-01 -5.03705416367446071e-04 -9.51098971679633178e-04
6.98000000000000000e+09 2.50470398933533810e-04 4.47450182796924848e-04 5.56533808374936489e-01 3.26880438737674126e-02 5.56533808374936489e-01 3.26880438737674126e-02 5.81443553222765514e-04 2.57722393241168032e-04
6.99000000000000000e+09 -3.41982694085668450e-04 -7.33636574161978454e-04 5.38048880226465465e-01 -1.42961983997087788e-01 5.38048880226465465e-01 -1.42961983997087788e-01 -5.15956680990508048e-04 2.30064223073934418e-04
7.00000000000000000e+09 -1.11151270145835716e-03 1.62903400283474900e-04 4.67865135025638867e-01 -3.02432361739307931e-01 4.67865135025638867e-01 -3.02432361739307931e-01 3.27096848045596773e-04 2.65764323954113953e-04
7.01000000000000000e+09 2.34777464770761928e-05 2.70047985489740470e-04 3.51531507934716658e-01 -4.32883866309872578e-01 3.51531507934716658e-01 -4.32883866309872578e-01 -9.18258821466410549e-04 4.15905448383932573e-04
7.02000000000000000e+09 -5.51683701259681044e-04 -3.17154963766673285e-04 2.00314528402045361e-01 -5.19441852253275438e-01 2.00314528402045361e-01 -5.19441852253275438e-01 1.60329904693340712e-04 -2.26753243061321425e-04
7.03000000000000000e+09 1.77282418538619369e-03 4.52601233614057907e-04 2.95224744315700921e-02 -5.56712821978360695e-01 2.95224744315700921e-02 -5.56712821978360695e-01 6.50679984544333574e-04 -4.88370797454841976e-04
7.04000000000000000e+09 -8.32396192804356577e-04 -5.78108684877760436e-04 -1.44112781101612630e-01 -5.37739178869416357e-01 -1.44112781101612630e-01 -5.37739178869416357e-01 -1.41208433645884134e-03 -8.78545025044368162e-04
7.05000000000000000e+09 -5.71615204639777381e-04 8.92697373169822539e-04 -3.01824203594014739e-01 -4.66123723568506954e-01 -3.01824203594014739e-01 -4.66123723568506954e-01 -3.56089291646666031e-05 4.50226963739911628e-04
7.06000000000000000e+09 8.42362349089611964e-04 9.19099911338038986e-05 -4.32288780180072885e-01 -3.48335606967407951e-01 -4.32288780180072885e-01 -3.48335606967407951e-01 7.32912709862710990e-04 3.97332708545878460e-04
7.07000000000000000e+09 -4.14293506139933986e-04 -5.80438246011512771e-04 -5.18204764416388408e-01 -1.99490547063760210e-01 -5.18204764416388408e-01 -1.99490547063760210e-01 1.13390585583734689e-03 -1.27852000937089122e-03
7.08000000000000000e+09 -1.83504218323179356e-04 -2.40642747297197353e-04 -5.55716821819447038e-01 -2.82531196600069902e-02 -5.55716821819447038e-01 -2.82531196600069902e-02 1.27718515154521270e-03 9.46610010910946590e-04
7.09000000000000000e+09 -6.37360515513558067e-04 -1.04023666070270169e-03 -5.36643628087879798e-01 1.45158801392799991e-01 -5.36643628087879798e-01 1.45158801392799991e-01 -2.41812442589357763e-04 -5.93600470810196285e-04
7.10000000000000000e+09 6.24606929569500031e-04 -2.13203550385249852e-04 -4.64650188340537507e-01 3.02560690453371472e-01 -4.64650188340537507e-01 3.02560690453371472e-01 4.41266954847206619e-04 3.27995761902713913e-04
7.11000000000000000e+09 -2.15442822995478450e-04 1.58425560900538596e-03 -3.48598581007633301e-01 4.32737925347147612e-01 -3.48598581007633301e-01 4.32737925347147612e-01 5.59850862227908403e-04 1.27849895127495582e-03
7.12000000000000000e+09 1.15733502703995860e-03 -1.24482668665451773e-05 -1.98581200480675624e-01 5.18878051477090430e-01 -1.98581200480675624e-01 5.18878051477090430e-01 8.67199812648854164e-04 -2.23306402844813056e-04
7.13000000000000000e+09 6.65008636730863049e-04 -1.19841692937697783e-03 -2.71957463735616398e-02 5.53814739899995412e-01 -2.71957463735616398e-02 5.53814739899995412e-01 -5.06997158073918346e-04 1.39703125961939339e-04
7.14000000000000000e+09 5.79394406473470838e-05 -2.20918773679984254e-03 1.45222527196763346e-01 5.34940864546038175e-01 1.45222527196763346e-01 5.34940864546038175e-01 -4.62062838288589161e-04 2.66176182122419651e-04
7.15000000000000000e+09 8.27147661180205611e-04 -1.60959472019553732e-03 3.02864364388958252e-01 4.63401684545273973e-01 3.02864364388958252e-01 4.63401684545273973e-01 1.08301643761544194e-03 -3.52755692833855072e-04
7.16000000000000000e+09 -1.06261748502025624e-03 6.75365652267215320e-04 4.30602234134571493e-01 3.45226115002791822e-01 4.30602234134571493e-01 3.45226115002791822e-01 -1.34324824002746992e-03 4.65341250732604792e-04
7.17000000000000000e+09 5.01267983749728824e-04 -5.28220408846557108e-05 5.16866310266701490e-01 1.96869102713486038e-01 5.16866310266701490e-01 1.96869102713486038e-01 -5.84484003021642855e-04 4.18930990372493246e-04
7.18000000000000000e+09 6.41467512009695874e-04 -9.75045687227257861e-04 5.53831219944856290e-01 2.49283607650435252e-02 5.53831219944856290e-01 2.49283607650435252e-02 -5.37268865665619299e-04 -1.80432408987864397e-03
7.19000000000000000e+09 9.61163485529297227e-04 2.51162140331951875e-04 5.33843614512892195e-01 -1.47360038499121687e-01 5.33843614512892195e-01 -1.47360038499121687e-01 -1.47006425066010403e-05 4.32064841887005763e-04
7.20000000000000000e+09 -8.52691134973110527e-04 8.08657604526621856e-04 4.61005134697129115e-01 -3.03589022320095991e-01 4.61005134697129115e-01 -3.03589022320095991e-01 3.78018236503540694e-05 1.28442135548226667e-03
7.21000000000000000e+09 8.70957306847710763e-05 -1.14961532450749817e-04 3.44792642281627648e-01 -4.29386986431593121e-01 3.44792642281627648e-01 -4.29386986431593121e-01 -7.09143467685588035e-04 6.38685825470820850e-05
7.22000000000000000e+09 -9.39488507924666019e-04 -1.26284657572346888e-03 1.95035235697630455e-01 -5.17355714940738620e-01 1.95035235697630455e-01 -5.17355714940738620e-01 4.70232372642541397e-04 -1.50701987324232227e-03
7.23000000000000000e+09 5.01935019352528055e-04 -5.63936908725534941e-04 2.57337868648014334e-02 -5.49905401109735514e-01 2.57337868648014334e-02 -5.49905401109735514e-01 -3.92010941532028106e-04 -1.21255773262371621e-03
7.24000000000000000e+09 1.12494560785265691e-03 7.85012037849509766e-05 -1.47244829916807068e-01 -5.32391906015091343e-01 -1.47244829916807068e-01 -5.32391906015091343e-01 3.95705569699169452e-04 5.67281271077942095e-04
7.25000000000000000e+09 -2.91582547118179511e-04 -5.38506092180748071e-04 -3.04640551459145370e-01 -4.60389116406807852e-01 -3.04640551459145370e-01 -4.60389116406807852e-01 -4.64914394991040717e-04 3.15329676004153577e-04
7.26000000000000000e+09 3.79208376652880074e-04 -6.79423885242575604e-04 -4.30466422860933617e-01 -3.43415000762869627e-01 -4.30466422860933617e-01 -3.43415000762869627e-01 2.22009873006274999e-04 -7.22482540921886478e-04
7.27000000000000000e+09 -2.08190275982114009e-03 5.19882222696019236e-06 -5.15697440116418937e-01 -1.93561951496281692e-01 -5.15697440116418937e-01 -1.93561951496281692e-01 -1.51017087000539663e-03 8.71484507581859742e-04
7.28000000000000000e+09 1.35750591301294775e-03 5.27453816884292733e-04 -5.50339115428363890e-01 -2.41625231056274148e-02 -5.50339115428363890e-01 -2.41625231056274148e-02 9.83247495333120468e-05 -4.78305232528104948e-04
7.29000000000000000e+09 7.05096357565026741e-04 1.37222642800213392e-05 -5.30940167963621201e-01 1.47677937581876556e-01 -5.30940167963621201e-01 1.47677937581876556e-01 -1.87668729555219208e-04 -1.04090047557674594e-03
7.30000000000000000e+09 -2.75552578216588359e-04 -5.99235570167464828e-04 -4.58849326889901599e-01 3.04135628606742148e-01 -4.58849326889901599e-01 3.04135628606742148e-01 5.35656115945067548e-05 1.14956479199023414e-04
7.31000000000000000e+09 1.56257328092615527e-04 3.64048955407929374e-04 -3.44533991833000430e-01 4.31121381437369389e-01 -3.44533991833000430e-01 4.31121381437369389e-01 -7.22800894569524310e-05 -1.34377801669632565e-04
7.32000000000000000e+09 -1.13540522642536883e-03 -3.62475859703192656e-04 -1.90015615065738552e-01 5.15943301056410175e-01 -1.90015615065738552e-01 5.15943301056410175e-01 5.58419388509196271e-04 -7.70447923415906516e-04
7.33000000000000000e+09 6.54480115750924831e-04 6.59968537700805763e-05 -2.26690119474823662e-02 5.49837464247817431e-01 -2.26690119474823662e-02 5.49837464247817431e-01 4.69872852248543361e-04 -7.11070721726377074e-04
7.34000000000000000e+09 -6.41209069344967492e-04 -4.26386758205838181e-04 1.48615280605065958e-01 5.31188607291137371e-01 1.48615280605065958e-01 5.31188607291137371e-01 6.02235047282639402e-04 1.03684209149345198e-03
7.35000000000000000e+09 1.23103031354776093e-04 5.75046524432284230e-04 3.05007076288440593e-01 4.58514617572790883e-01 3.05007076288440593e-01 4.58514617572790883e-01 7.48635403301350097e-04 -1.19192987500512182e-04
7.36000000000000000e+09 7.16658321520221886e-06 1.12849630756412878e-03 4.30077897409286591e-01 3.40477780731736235e-01 4.30077897409286591e-01 3.40477780731736235e-01 5.79566940175800819e-04 4.80187644833292315e-04
7.37000000000000000e+09 1.08043781286207155e-03 -2.26286179965300361e-04 5.14068499086872466e-01 1.89667663536296716e-01 5.14068499086872466e-01 1.89667663536296716e-01 8.24726902498487853e-04 -3.49637000695682715e-05
7.38000000000000000e+09 1.84180723789974422e-04 5.65095546091405002e-04 5.48816908340068021e-01 2.15587663547418713e-02 5.48816908340068021e-01 2.15587663547418713e-02 5.99722697135823910e-04 3.93400429889885213e-04
7.39000000000000000e+09 -7.51279822644966349e-04 -1.97717437493709043e-03 5.28233576083115608e-01 -1.49209698861235474e-01 5.28233576083115608e-01 -1.49209698861235474e-01 7.24454718196297165e-04 -1.36206736246892869e-04
7.40000000000000000e+09 1.01007642804285197e-03 -1.00163380717291210e-03 4.56510867859922065e-01 -3.03902552218521638e-01 4.56510867859922065e-01 -3.03902552218521638e-01 -6.59280668118606490e-04 4.89941146790559231e-04
7.41000000000000000e+09 1.46253381172680981e-04 3.86959556196772158e-04 3.38919703404039818e-01 -4.31314061515965852e-01 3.38919703404039818e-01 -4.31314061515965852e-01 4.66164964769268602e-05 2.03494124292863312e-03
7.42000000000000000e+09 7.89412534511578089e-04 -2.81186850587815461e-04 1.88139858679605698e-01 -5.14309650977714528e-01 1.88139858679605698e-01 -5.14309650977714528e-01 3.72032387915943567e-04 5.15603341860266118e-04
7.43000000000000000e+09 3.18150050704517037e-04 -1.41561640055762631e-04 2.00396686507410167e-02 -5.46793973337034167e-01 2.00396686507410167e-02 -5.46793973337034167e-01 8.00736376066240674e-04 7.91473110177514034e-04
7.44000000000000000e+09 -4.13670865185405241e-04 -2.02172370705561031e-04 -1.49539764775055900e-01 -5.27830064204040550e-01 -1.49539764775055900e-01 -5.27830064204040550e-01 -1.83679257436278505e-03 -3.10127772709836052e-04
7.45000000000000000e+09 7.96041032883547492e-04 1.72618116190499557e-04 -3.05263623760183178e-01 -4.53694407825631640e-01 -3.05263623760183178e-01 -4.53694407825631640e-01 -2.22219187997824456e-04 -1.54968829313496305e-04
7.46000000000000000e+09 1.03841237250469056e-03 2.23660022831974467e-04 -4.31879975920219927e-01 -3.36788667496412453e-01 -4.31879975920219927e-01 -3.36788667496412453e-01 6.18912163681421389e-04 1.47525979316498771e-03
7.47000000000000000e+09 7.51456045127334442e-04 9.51297814096553986e-04 -5.15036567276997315e-01 -1.87665581228797534e-01 -5.15036567276997315e-01 -1.87665581228797534e-01 1.88629248274590990e-04 1.44184991716798374e-03
7.48000000000000000e+09 -2.69792014919087160e-04 3.90125996408909154e-05 -5.47034350006821324e-01 -2.04040117008108708e-02 -5.47034350006821324e-01 -2.04040117008108708e-02 -9.17091415815100537e-04 -4.34986256077575918e-04
7.49000000000000000e+09 5.16823018529955153e-04 9.14478702737951308e-04 -5.24506169051214388e-01 1.50268188349323151e-01 -5.24506169051214388e-01 1.50268188349323151e-01 -7.97488264269469323e-04 -2.81561099356609145e-04
7.50000000000000000e+09 -6.72493990935618094e-04 -4.47014280639663106e-05 -4.52289490326241217e-01 3.05414256135034534e-01 -4.52289490326241217e-01 3.05414256135034534e-01 1.72728164610780398e-03 -9.97490664054085556e-04
7.51000000000000000e+09 -1.10793309893027908e-03 6.59016882831688403e-04 -3.37088405960679793e-01 4.30249460951487306e-01 -3.37088405960679793e-01 4.30249460951487306e-01 -7.76369649009785319e-04 -5.60892838748271042e-04
7.52000000000000000e+09 -7.65328113385279262e-04 -7.62461935119907049e-04 -1.85510823991495211e-01 5.13150097411155137e-01 -1.85510823991495211e-01 5.13150097411155137e-01 -7.34594368001768145e-04 -1.15754749567074036e-04
7.53000000000000000e+09 1.61231205788143193e-03 -8.60910588858411762e-05 -1.81481952379681753e-02 5.46634498116024048e-01 -1.81481952379681753e-02 5.46634498116024048e-01 7.39707778876295746e-04 5.50127625752349866e-04
7.54000000000000000e+09 4.58258581925904507e-04 -1.82417289799514069e-03 1.50314331095572129e-01 5.23995184483904919e-01 1.50314331095572129e-01 5.23995184483904919e-01 -1.00576887062189899e-03 -5.95240009984297053e-04
7.55000000000000000e+09 6.89391076659049795e-04 -6.92661506801335505e-04 3.06537368303923252e-01 4.51059028584095911e-01 3.06537368303923252e-01 4.51059028584095911e-01 3.19579457879518600e-04 1.41971052860499493e-04
7.56000000000000000e+09 1.04743641821259961e-05 -4.11038748650163744e-04 4.30217243776889469e-01 3.35372900444615651e-01 4.30217243776889469e-01 3.35372900444615651e-01 1.70861142046038414e-04 5.23155684825376177e-05
7.57000000000000000e+09 -9.72973319087457869e-04 1.23663099654412441e-03 5.12387066722479689e-01 1.85448647253881382e-01 5.12387066722479689e-01 1.85448647253881382e-01 1.16646896133977233e-05 -1.22701256081318472e-03
7.58000000000000000e+09 -1.28380002038293718e-03 1.02496154397825392e-04 5.42256604638734041e-01 1.71645185848056485e-02 5.42256604638734041e-01 1.71645185848056485e-02 -1.78578634534122251e-04 -4.70524750700925518e-04
7.59000000000000000e+09 -1.48104106813895693e-03 -3.49865915729978864e-04 5.20974021617938599e-01 -1.51569535593069987e-01 5.20974021617938599e-01 -1.51569535593069987e-01 -1.25514041183356862e-03 -4.55446255099948953e-04
7.60000000000000000e+09 1.44046185116281891e-04 -1.46229853409641109e-03 4.49864178538557591e-01 -3.06814079420709762e-01 4.49864178538557591e-01 -3.06814079420709762e-01 6.07235903267156054e-05 -1.49561051415177359e-04
7.61000000000000000e+09 1.24090182583696520e-03 1.62397036484054083e-04 3.33419527324531340e-01 -4.29304809120383268e-01 3.33419527324531340e-01 -4.29304809120383268e-01 1.12991774048639706e-03 5.01240500001868378e-04
7.62000000000000000e+09 1.42568610625779332e-04 -2.74892629173456983e-04 1.84385787084023256e-01 -5.11480840827164829e-01 1.84385787084023256e-01 -5.11480840827164829e-01 1.14933632950501500e-03 -6.39026790659096250e-04
7.63000000000000000e+09 1.45514078406760181e-03 -3.46373863736650913e-04 1.61188925324338046e-02 -5.42371016511196014e-01 1.61188925324338046e-02 -5.42371016511196014e-01 -8.76531565018969492e-04 -7.43543859516114796e-04
7.64000000000000000e+09 4.46606686938095490e-05 1.26010495664928644e-03 -1.51521827564486677e-01 -5.21310678178056874e-01 -1.51521827564486677e-01 -5.21310678178056874e-01 1.15599216774862445e-03 -1.82936851057166226e-04
7.65000000000000000e+09 9.52518234658510495e-05 -9.62850813099538991e-04 -3.05939749080879952e-01 -4.48235326164204362e-01 -3.05939749080879952e-01 -4.48235326164204362e-01 1.16677509992161709e-03 -1.85145463761364953e-04
7.66000000000000000e+09 1.30630276816570738e-04 4.80344158431527128e-05 -4.29260031424680444e-01 -3.31300399971668214e-01 -4.29260031424680444e-01 -3.31300399971668214e-01 6.80116343965524390e-04 2.21296994527802780e-04
7.67000000000000000e+09 -1.61192968279896175e-04 7.88449875994721842e-04 -5.11668064918252341e-01 -1.82907305487817085e-01 -5.11668064918252341e-01 -1.82907305487817085e-01 1.80959935841657317e-03 3.08075746469797102e-04
7.68000000000000000e+09 -4.27393735440730158e-04 -7.44587164042743803e-04 -5.42922299478365677e-01 -1.59593498729271900e-02 -5.42922299478365677e-01 -1.59593498729271900e-02 -1.88063898501881056e-04 1.13459158322257728e-04
7.69000000000000000e+09 1.16418473545447466e-04 3.20405577031816758e-04 -5.19822279699211132e-01 1.54268123032019311e-01 -5.19822279699211132e-01 1.54268123032019311e-01 -2.38266637631947891e-04 -2.01516344805277060e-03
7.70000000000000000e+09 3.67210850750996265e-04 -1.08062312915113874e-03 -4.45680293553688267e-01 3.07394525255389350e-01 -4.45680293553688267e-01 3.07394525255389350e-01 -2.41841545596211999e-04 -5.58323671063979844e-06
7.71000000000000000e+09 3.18210226247489226e-05 6.66120724947114355e-04 -3.29032523158655665e-01 4.29146359166323321e-01 -3.29032523158655665e-01 4.29146359166323321e-01 -7.37812234717427043e-04 5.66123294757784668e-04
7.72000000000000000e+09 -8.75741672091593292e-04 9.38751861106518594e-04 -1.81400504874777629e-01 5.08769477158506622e-01 -1.81400504874777629e-01 5.08769477158506622e-01 -8.20455021020754979e-05 -9.70354318546495917e-04
7.73000000000000000e+09 6.58805429562168325e-04 -4.08560804501502720e-04 -1.53000625616350576e-02 5.41669129315584419e-01 -1.53000625616350576e-02 5.41669129315584419e-01 -4.94456854582007587e-04 3.10459582219522773e-04
7.74000000000000000e+09 -8.19655683534826151e-04 7.41893447772336984e-04 1.52779874158979756e-01 5.18593849409817120e-01 1.52779874158979756e-01 5.18593849409817120e-01 -9.47356377824342235e-04 -1.61441844667604837e-04
7.75000000000000000e+09 5.49746764641483748e-04 7.49238792124637664e-05 3.06836365582128623e-01 4.45422511679580302e-01 3.06836365582128623e-01 4.45422511679580302e-01 1.15357499563693459e-04 -4.42859591191266443e-04
7.76000000000000000e+09 4.53458819958302761e-04 -3.66108008632193076e-04 4.29689283036393699e-01 3.28753901155009909e-01 4.29689283036393699e-01 3.28753901155009909e-01 3.15329136574740601e-04 -5.39568597855220118e-04
7.77000000000000000e+09 1.40416038937136306e-03 9.15836732848497766e-04 5.10254673453955032e-01 1.80074041343514901e-01 5.10254673453955032e-01 1.80074041343514901e-01 -2.00791761215092859e-03 -7.59018677997410143e-04
7.78000000000000000e+09 4.19604086782698774e-04 -6.50490994730539354e-04 5.40803876050062748e-01 1.45778503431160007e-02 5.40803876050062748e-01 1.45778503431160007e-02 3.66372677336040671e-04 -1.03966685049901677e-03
7.79000000000000000e+09 -4.43070496112363428e-04 2.78709601839647757e-04 5.16658010627408681e-01 -1.54250754057990130e-01 5.16658010627408681e-01 -1.54250754057990130e-01 3.32984576437690301e-05 2.13725658817750115e-04
7.80000000000000000e+09 5.00968480755268242e-04 9.75159982899197978e-04 4.44653841384412607e-01 -3.08597026164987298e-01 4.44653841384412607e-01 -3.08597026164987298e-01 -1.36074525767501241e-03 -7.52922386363412128e-04
7.81000000000000000e+09 2.47608595006271756e-04 -6.83456148307242392e-04 3.28054518761305924e-01 -4.28450447609350193e-01 3.28054518761305924e-01 -4.28450447609350193e-01 5.68344838300834381e-04 9.07792386838857352e-06
7.82000000000000000e+09 1.88187878713903800e-03 -7.43563633314945011e-04 1.77696790777894603e-01 -5.09852715875619977e-01 1.77696790777894603e-01 -5.09852715875619977e-01 -8.95429786398402338e-04 2.58451113066767791e-04
7.83000000000000000e+09 6.52693767772066715e-04 -3.74346100627819428e-05 1.30617614628797413e-02 -5.38689584026650903e-01 1.30617614628797413e-02 -5.38689584026650903e-01 -7.46156545689090041e-04 1.05278137364173672e-03
7.84000000000000000e+09 3.49414125733408168e-05 -6.02204818010558984e-04 -1.55179895185903027e-01 -5.16372008549953687e-01 -1.55179895185903027e-01 -5.16372008549953687e-01 3.10249187596988525e-04 2.70601586103173786e-04
7.85000000000000000e+09 9.28719197452464152e-04 -2.07064939526093773e-04 -3.05560781213353283e-01 -4.43015532040192173e-01 -3.05560781213353283e-01 -4.43015532040192173e-01 -4.21718937467509942e-04 -7.36300088985253039e-04
7.86000000000000000e+09 -2.28993320663521867e-04 -6.46391464622871927e-04 -4.30078496587811110e-01 -3.25640284000239588e-01 -4.30078496587811110e-01 -3.25640284000239588e-01 5.73464640270616023e-04 -7.95112227761111349e-04
7.87000000000000000e+09 -8.30542783886333534e-04 -1.66146612070836941e-03 -5.08386088842276207e-01 -1.74851351252863246e-01 -5.08386088842276207e-01 -1.74851351252863246e-01 3.41089608177614809e-04 -2.95385579582434460e-04
7.88000000000000000e+09 9.80371805914659724e-04 -5.58672451731967052e-05 -5.38087683240760839e-01 -1.00835664111952293e-02 -5.38087683240760839e-01 -1.00835664111952293e-02 -3.58388753481104561e-04 -4.43500757569326544e-04
7.89000000000000000e+09 -4.70712778887724421e-04 -5.37063766067226098e-04 -5.14098311131293451e-01 1.56584642739827168e-01 -5.14098311131293451e-01 1.56584642739827168e-01 -2.53835559111816901e-04 -4.47350991902063094e-04
7.90000000000000000e+09 4.12068141950138505e-05 7.79562528788132450e-04 -4.40553649001346526e-01 3.08269717190367054e-01 -4.40553649001346526e-01 3.08269717190367054e-01 9.53442343489335916e-04 -4.06686214696094089e-04
7.91000000000000000e+09 8.49261399932953426e-04 -3.98659963419139435e-04 -3.25229046505937480e-01 4.27552895538467370e-01 -3.25229046505937480e-01 4.27552895538467370e-01 -8.01424104950406346e-04 -9.10938319441275107e-04
7.92000000000000000e+09 2.62713458920520052e-04 6.76173434547749203e-04 -1.75143681837216375e-01 5.07199325620914299e-01 -1.75143681837216375e-01 5.07199325620914299e-01 2.01592645960418161e-04 4.53693494134388268e-04
7.93000000000000000e+09 9.59089528789081850e-04 5.05188548725491533e-04 -8.70054529183478254e-03 5.36614245777605858e-01 -8.70054529183478254e-03 5.36614245777605858e-01 -5.55814150144333166e-05 6.90410746526131085e-04
7.94000000000000000e+09 1.32164536024903057e-04 -8.61791263906596191e-05 1.57538739763553925e-01 5.14443229683041126e-01 1.57538739763553925e-01 5.14443229683041126e-01 6.38280634192975663e-04 -4.94046343828983452e-04
7.95000000000000000e+09 -7.37300908324612118e-04 -2.34915509077893267e-04 3.06857150932990763e-01 4.39432862962898629e-01 3.06857150932990763e-01 4.39432862962898629e-01 -1.29626301811602471e-03 -8.99189242745278061e-05
7.96000000000000000e+09 -1.16397603599507037e-05 -5.23495469588952048e-04 4.28132643129928547e-01 3.23048549541095575e-01 4.28132643129928547e-01 3.23048549541095575e-01 -5.02667213707910245e-04 4.80664562982256846e-04
7.97000000000000000e+09 -1.13171621441292996e-03 6.10816293721896117e-04 5.07155025137860038e-01 1.74651326082425562e-01 5.07155025137860038e-01 1.74651326082425562e-01 -1.11294009301213790e-03 -1.85093550755055140e-04
7.98000000000000000e+09 -8.64088258481094762e-04 -7.19667303417404706e-04 5.35751824228795193e-01 9.22435521147942084e-03 5.35751824228795193e-01 9.22435521147942084e-03 3.29563338475354734e-04 -2.75523603793941777e-04
7.99000000000000000e+09 1.38233214043201162e-05 -6.72900526667878727e-04 5.12735072172899042e-01 -1.57780282275941819e-01 5.12735072172899042e-01 -1.57780282275941819e-01 -5.96947691396112958e-05 1.49185380823446212e-04
8.00000000000000000e+09 -3.19615493641037046e-04 6.88766396059683583e-04 4.37991816308902882e-01 -3.07753594714838485e-01 4.37991816308902882e-01 -3.07753594714838485e-01 -6.66331671223638995e-04 1.21332475405760843e-04
8.01000000000000000e+09 7.79363450755088920e-06 -5.41590639781719244e-04 3.22151488302205691e-01 -4.27898502496048438e-01 3.22151488302205691e-01 -4.27898502496048438e-01 5.20157195626469058e-04 -3.99330017075683627e-04
8.02000000000000000e+09 5.06933157741009267e-04 5.88068559744354025e-04 1.73208833022303943e-01 -5.06485170002389018e-01 1.73208833022303943e-01 -5.06485170002389018e-01 1.50623927348826240e-04 -1.56977914764307500e-04
8.03000000000000000e+09 5.72541231356095149e-05 -1.81416054017965732e-05 6.95190158450776415e-03 -5.36367543395110724e-01 6.95190158450776415e-03 -5.36367543395110724e-01 -8.23428432285831010e-04 1.68871217589626000e-03
8.04000000000000000e+09 -6.98320388092990574e-04 2.12790525724893714e-04 -1.57443298233554407e-01 -5.10482208610574362e-01 -1.57443298233554407e-01 -5.10482208610574362e-01 -4.69791759854823433e-04 -8.61769983603559572e-04
8.05000000000000000e+09 4.37340616897306876e-04 4.12179939809751870e-04 -3.09143946559666871e-01 -4.36762068068821008e-01 -3.09143946559666871e-01 -4.36762068068821008e-01 -2.14084424766414579e-04 6.90377945996637870e-05
8.06000000000000000e+09 -7.17438624467384525e-04 1.57251023043144243e-03 -4.27681815394511944e-01 -3.18253943177326026e-01 -4.27681815394511944e-01 -3.18253943177326026e-01 1.39481914893368726e-03 3.86058934839678374e-04
8.07000000000000000e+09 -9.03785279034494018e-04 -3.50346618978435791e-05 -5.05731003481835972e-01 -1.72274739670287030e-01 -5.05731003481835972e-01 -1.72274739670287030e-01 -6.07605139082176434e-04 9.13447234316914244e-04
8.08000000000000000e+09 4.94984712340659403e-04 8.66931424307597776e-05 -5.32818759437785561e-01 -7.15559822971210610e-03 -5.32818759437785561e-01 -7.15559822971210610e-03 -3.87872805949709954e-04 7.49693879654040858e-04
8.09000000000000000e+09 7.07611568487954978e-04 -6.92854684455276328e-04 -5.09780965281412479e-01 1.58992782183563441e-01 -5.09780965281412479e-01 1.58992782183563441e-01 -5.28558855214471984e-04 1.47706662499444598e-04
8.10000000000000000e+09 -2.84991311617690916e-04 3.66778724953933368e-04 -4.34565999742174081e-01 3.09698625589170939e-01 -4.34565999742174081e-01 3.09698625589170939e-01 3.02541612182672043e-04 3.52062452239100475e-05
8.11000000000000000e+09 -5.64442891841083921e-05 7.70512867128702174e-04 -3.18577125860660892e-01 4.27338517237688342e-01 -3.18577125860660892e-01 4.27338517237688342e-01 -4.44148866243512417e-04 -4.74715559947991360e-04
8.12000000000000000e+09 4.70728170154234246e-04 -1.69360074276768630e-03 -1.68815863381269526e-01 5.05731326217984334e-01 -1.68815863381269526e-01 5.05731326217984334e-01 -1.16317207800969226e-04 -5.73792209926403786e-04
8.13000000000000000e+09 -7.43017474237969103e-04 7.15659204396045553e-04 -5.40262022031600363e-03 5.33379493669358218e-01 -5.40262022031600363e-03 5.33379493669358218e-01 3.90479913498872411e-04 1.53479579286731156e-03
8.14000000000000000e+09 7.83418667104821822e-04 -9.05616861157063801e-05 1.58568030631730639e-01 5.09052506813282513e-01 1.58568030631730639e-01 5.09052506813282513e-01 2.17554014265333284e-04 3.56301479560913823e-04
8.15000000000000000e+09 -6.07849547941996505e-04 -1.02906883458972313e-04 3.09789190929684766e-01 4.34947530955466788e-01 3.09789190929684766e-01 4.34947530955466788e-01 5.51583635151876969e-04 1.11953641051873589e-04
8.16000000000000000e+09 -1.31687030513688298e-04 -4.32358247178949438e-04 4.26869910668404351e-01 3.17117847801524522e-01 4.26869910668404351e-01 3.17117847801524522e-01 1.38234043576626977e-03 -1.30240782183114090e-03
8.17000000000000000e+09 -1.01402431476405836e-04 3.68229870527944788e-04 5.05311802456111403e-01 1.70478409122036850e-01 5.05311802456111403e-01 1.70478409122036850e-01 -1.38049651394054826e-03 -2.27194017829680014e-04
8.18000000000000000e+09 1.01692680971597878e-04 2.18572068973818350e-04 5.32570232040864400e-01 5.71720782410360499e-03 5.32570232040864400e-01 5.71720782410360499e-03 -1.55802180373701155e-03 -2.32358975438911908e-04
8.19000000000000000e+09 2.03512373191528338e-04 6.38506838192854509e-05 5.08077679065194854e-01 -1.59640632534112203e-01 5.08077679065194854e-01 -1.59640632534112203e-01 -1.05875803767957596e-03 -2.76289637277746995e-04
8.20000000000000000e+09 -8.87801855282653585e-05 -1.33080418205428538e-03 4.32331910473458869e-01 -3.08696524712287756e-01 4.32331910473458869e-01 -3.08696524712287756e-01 -4.50051874247729201e-04 -6.77435989744246733e-04
8.21000000000000000e+09 -4.48000919477273610e-04 1.06330917354791944e-03 3.14987458631245776e-01 -4.28575575706321321e-01 3.14987458631245776e-01 -4.28575575706321321e-01 -5.52212066561104668e-04 -1.11644088226251891e-03
8.22000000000000000e+09 -4.44354523207129932e-05 -3.01319829543830525e-04 1.67871387868650884e-01 -5.04724770871008310e-01 1.67871387868650884e-01 -5.04724770871008310e-01 -9.60896048673924846e-04 -5.81134265564604998e-04
8.23000000000000000e+09 -4.32779286458267857e-04 -5.81409033408771697e-04 3.72174168950159881e-03 -5.32453774759467868e-01 3.72174168950159881e-03 -5.32453774759467868e-01 8.59172016437675175e-04 -1.00928724643108256e-03
8.24000000000000000e+09 8.67375976351275418e-04 9.78972190042048333e-04 -1.60768935806349711e-01 -5.05286745201788512e-01 -1.60768935806349711e-01 -5.05286745201788512e-01 8.21833214738567535e-05 4.49064821242162052e-04
8.25000000000000000e+09 -1.01598051749314023e-03 -5.86676779740484804e-04 -3.09203051377437976e-01 -4.31816935846311978e-01 -3.09203051377437976e-01 -4.31816935846311978e-01 -1.35399700596397889e-03 8.54959689304206892e-04
8.26000000000000000e+09 -2.76856743196885401e-04 -2.16521947514171598e-04 -4.28258674014762974e-01 -3.13635047769546704e-01 -4.28258674014762974e-01 -3.13635047769546704e-01 -5.46465877766470179e-04 -9.61291818460774817e-04
8.27000000000000000e+09 9.67655252036107172e-05 6.32859753083624696e-04 -5.03235462845810111e-01 -1.67223650640870775e-01 -5.03235462845810111e-01 -1.67223650640870775e-01 8.96612326024552272e-04 4.94130380013358848e-04
8.28000000000000000e+09 1.54665838328528596e-04 1.60559472362920079e-04 -5.30381432269989905e-01 -4.02973103689081152e-03 -5.30381432269989905e-01 -4.02973103689081152e-03 4.52080971192377003e-04 1.30356438204584971e-03
8.29000000000000000e+09 -1.19785842025460195e-03 -8.20524346878640388e-04 -5.03445114673612193e-01 1.61340600751540553e-01 -5.03445114673612193e-01 1.61340600751540553e-01 -1.53357652793905037e-03 -3.69638319909962982e-04
8.30000000000000000e+09 4.65230639661578225e-04 -7.57225169964847170e-05 -4.29406289113020423e-01 3.09243620985086676e-01 -4.29406289113020423e-01 3.09243620985086676e-01 -4.22774382675553193e-04 -4.01537180278376904e-04
8.31000000000000000e+09 -3.25997328202314030e-04 9.84011706289990816e-04 -3.13907761400668450e-01 4.27424571977731371e-01 -3.13907761400668450e-01 4.27424571977731371e-01 6.83601392906183218e-05 7.97021622583889578e-04
8.32000000000000000e+09 3.75426322961146589e-04 -4.88844051175654532e-04 -1.65686748092942204e-01 5.02476296507117004e-01 -1.65686748092942204e-01 5.02476296507117004e-01 2.93919533480776227e-04 3.51657610215614324e-04
8.33000000000000000e+09 4.77204236066803265e-04 8.04323935321239964e-04 -2.20043908293009573e-03 5.28648669070224009e-01 -2.20043908293009573e-03 5.28648669070224009e-01 5.95679726440434174e-04 -1.41321415744479362e-03
8.34000000000000000e+09 3.15839282635654460e-04 -1.18655622168678380e-03 1.62082697541737264e-01 5.02440119254403794e-01 1.62082697541737264e-01 5.02440119254403794e-01 5.36492284531302774e-04 1.36321532067274582e-04
8.35000000000000000e+09 2.12392284848367328e-04 -1.50671082987806197e-03 3.09185902156886683e-01 4.28034700956599845e-01 3.09185902156886683e-01 4.28034700956599845e-01 -4.65936716631474722e-04 7.64907539373189667e-04
8.36000000000000000e+09 1.49926879081855094e-04 2.23738574025757664e-04 4.27664960928074489e-01 3.12633908609413591e-01 4.27664960928074489e-01 3.12633908609413591e-01 1.17955363178952262e-04 2.43565957736553669e-05
8.37000000000000000e+09 -2.87789073430487214e-04 -3.04163419487656371e-05 5.02134404359312225e-01 1.64404027813500914e-01 5.02134404359312225e-01 1.64404027813500914e-01 -8.41648107701044442e-04 2.13873800098542436e-04
8.38000000000000000e+09 8.00223691764593279e-04 1.54725158244083940e-04 5.29022886526416714e-01 1.42215731461957980e-03 5.29022886526416714e-01 1.42215731461957980e-03 1.16856826813278619e-03 -1.18599511758608317e-04
8.39000000000000000e+09 6.15916548109197233e-04 -1.34230820811678873e-04 5.01651983236440779e-01 -1.61499369984955371e-01 5.01651983236440779e-01 -1.61499369984955371e-01 -1.05748830855987896e-04 2.00791889311320408e-04
8.40000000000000000e+09 -2.94742909537230218e-04 1.01989102044819325e-03 4.27308874393380778e-01 -3.09593641876860670e-01 4.27308874393380778e-01 -3.09593641876860670e-01 9.35131857303514598e-04 7.69541489179899059e-04
8.41000000000000000e+09 -1.74613193299863077e-03 1.46968957439579638e-04 3.10343992228223453e-01 -4.27619731046983087e-01 3.10343992228223453e-01 -4.27619731046983087e-01 1.59420442416267129e-04 5.83215979236182042e-04
8.42000000000000000e+09 1.80841697746476291e-04 6.31896111690922200e-04 1.63249698912391578e-01 -5.02654944625965050e-01 1.63249698912391578e-01 -5.02654944625965050e-01 -6.30590496169439511e-04 -3.80677361189703202e-04
8.43000000000000000e+09 6.45206119639821544e-04 8.37885731269448985e-04 -1.23848614006712577e-04 -5.26078277321087029e-01 -1.23848614006712577e-04 -5.26078277321087029e-01 -1.60860388296947874e-04 2.36771814989755519e-04
8.44000000000000000e+09 -2.97605249434663978e-06 -3.52771197793810289e-04 -1.63630768877842253e-01 -5.01374101462656929e-01 -1.63630768877842253e-01 -5.01374101462656929e-01 4.64078304509873532e-05 -7.26833340777826718e-04
8.45000000000000000e+09 3.93484948670804716e-04 -7.17472861895348960e-04 -3.11066225246890982e-01 -4.25826634752668243e-01 -3.11066225246890982e-01 -4.25826634752668243e-01 -2.60244566545950911e-04 -1.32250631657180217e-06
8.46000000000000000e+09 -3.46155352843547683e-04 -4.40593887300793307e-04 -4.26497366695215319e-01 -3.08754192623526158e-01 -4.26497366695215319e-01 -3.08754192623526158e-01 -2.16994194775947002e-04 -5.65480598102637445e-04
8.47000000000000000e+09 -1.25723437150501304e-03 -7.32321547418667658e-04 -5.00541596241061537e-01 -1.61659817389104760e-01 -5.00541596241061537e-01 -1.61659817389104760e-01 8.20159926366557132e-04 -1.14344949521961588e-04
8.48000000000000000e+09 -5.09523275112011196e-04 -9.01918486863180556e-04 -5.25968837295502589e-01 8.74029417357433461e-04 -5.25968837295502589e-01 8.74029417357433461e-04 -5.03046564182044989e-04 -3.39630093656687548e-04
8.49000000000000000e+09 1.21726314775159124e-04 4.26040556335530250e-04 -4.99833787313690159e-01 1.63120641572957220e-01 -4.99833787313690159e-01 1.63120641572957220e-01 7.52246219817377985e-04 5.38761262943481781e-04
8.50000000000000000e+09 -4.08475751150754547e-04 -1.12251085124164519e-04 -4.23844922314689732e-01 3.11250402857724429e-01 -4.23844922314689732e-01 3.11250402857724429e-01 -5.22383836232160953e-04 7.29712505950370666e-04
8.51000000000000000e+09 -3.95434241482064063e-04 2.35312663087504744e-04 -3.07274201589560036e-01 4.26341208701221552e-01 -3.07274201589560036e-01 4.26341208701221552e-01 -1.16378389879064287e-03 -7.17848939317758980e-04
8.52000000000000000e+09 -6.39212208122244812e-04 1.47239034072748167e-03 -1.59768058233548782e-01 5.00922592765889241e-01 -1.59768058233548782e-01 5.00922592765889241e-01 -4.99347419253228951e-04 -9.02127358160366021e-04
8.53000000000000000e+09 -9.63586780367648322e-04 5.35729783204677524e-04 1.25811013742914229e-03 5.24676016975265669e-01 1.25811013742914229e-03 5.24676016975265669e-01 3.78528565371987757e-05 1.23690411435132164e-03
8.54000000000000000e+09 -4.12299590880827805e-04 -1.11404253297740243e-03 1.64572348046456263e-01 4.98421435600771401e-01 1.64572348046456263e-01 4.98421435600771401e-01 -1.98810315351923353e-03 -5.35417729400145372e-04
8.55000000000000000e+09 -5.86543965040826789e-04 3.01848802319253583e-04 3.09995773646302653e-01 4.22134884784658715e-01 3.09995773646302653e-01 4.22134884784658715e-01 5.02505735561313560e-04 9.90122221150045506e-04
8.56000000000000000e+09 5.90239249023987518e-04 -3.53739715222497000e-04 4.26447257942784486e-01 3.06297698289488607e-01 4.26447257942784486e-01 3.06297698289488607e-01 -1.44392985690626951e-03 1.19836639139657701e-03
8.57000000000000000e+09 5.62107832388443495e-04 7.35701019609143365e-04 5.00399841686411162e-01 1.59865924908954016e-01 5.00399841686411162e-01 1.59865924908954016e-01 -5.96422892115521853e-04 3.74727763011468764e-05
8.58000000000000000e+09 1.59634281023852460e-04 -1.87570429552841940e-04 5.24372296363850299e-01 -2.63561426684594952e-03 5.24372296363850299e-01 -2.63561426684594952e-03 -3.28620584118410712e-04 1.29355413855061969e-03
8.59000000000000000e+09 5.40469387784967771e-05 7.37885151732633159e-04 4.96603182520730491e-01 -1.65398368351958758e-01 4.96603182520730491e-01 -1.65398368351958758e-01 7.35738599478000168e-05 -3.05096730247503777e-04
8.60000000000000000e+09 -1.28274408042632179e-04 1.44090957661167918e-03 4.21712890641877003e-01 -3.12068454529990547e-01 4.21712890641877003e-01 -3.12068454529990547e-01 1.29859062406626510e-03 -9.54877376495629621e-04
8.61000000000000000e+09 -7.79036214991084925e-04 8.92008577452819951e-04 3.05425764224531937e-01 -4.25899995554801847e-01 3.05425764224531937e-01 -4.25899995554801847e-01 3.46491975438316071e-05 -1.30388243627825026e-04
8.62000000000000000e+09 -2.07238600462868037e-05 4.51793635710810953e-04 1.56373549796139433e-01 -4.99993208342896511e-01 1.56373549796139433e-01 -4.99993208342896511e-01 6.56974075126871794e-04 1.09357296042551680e-03
8.63000000000000000e+09 -8.46708507894790405e-04 -5.27541582757968153e-04 -4.90576045972151292e-03 -5.23406811000685090e-01 -4.90576045972151292e-03 -5.23406811000685090e-01 -2.19860633427034592e-04 -4.17010867744609830e-04
8.64000000000000000e+09 -2.57770899223214763e-04 -6.74859579877101507e-04 -1.66423599653594934e-01 -4.94672599501493337e-01 -1.66423599653594934e-01 -4.94672599501493337e-01 9.98613147334916594e-04 1.02215913043026936e-03
8.65000000000000000e+09 4.47622286475977439e-04 -7.81104966320484372e-04 -3.09300584235171483e-01 -4.19981852506508990e-01 -3.09300584235171483e-01 -4.19981852506508990e-01 -5.47414096882315620e-04 1.10819007616720189e-03
8.66000000000000000e+09 -5.77705311462306439e-04 -3.28147779447277813e-04 -4.24196373793838732e-01 -3.04450739104886903e-01 -4.24196373793838732e-01 -3.04450739104886903e-01 -9.12229715414631151e-04 -1.06569955557350610e-06
8.67000000000000000e+09 1.83747698894834937e-04 -7.16878763271795055e-04 -4.98556732089348309e-01 -1.57575174971976206e-01 -4.98556732089348309e-01 -1.57575174971976206e-01 -1.92968351599960612e-04 2.60224389044648636e-04
8.68000000000000000e+09 -1.00851865444045465e-03 -1.07058918392604516e-05 -5.22653022015996283e-01 4.06935693913021077e-03 -5.22653022015996283e-01 4.06935693913021077e-03 1.37927436350987606e-03 -3.20198784390086141e-04
8.69000000000000000e+09 1.09594214917652869e-04 -7.97847955914715514e-04 -4.93704074219040445e-01 1.66268977997488021e-01 -4.93704074219040445e-01 1.66268977997488021e-01 -4.46761036596868006e-04 -6.28457382481054983e-04
8.70000000000000000e+09 9.78154642295188783e-05 7.43394332205916399e-04 -4.18408055992007588e-01 3.11583164749236585e-01 -4.18408055992007588e-01 3.11583164749236585e-01 4.50601344297438559e-04 5.41357026888615264e-04
8.71000000000000000e+09 -1.30679444490182915e-04 -3.70668356279643262e-04 -3.01889814255587474e-01 4.26002618596129701e-01 -3.01889814255587474e-01 4.26002618596129701e-01 7.77289270417790609e-04 1.19662542810595107e-03
8.72000000000000000e+09 2.31324364198222100e-04 9.06484623070269251e-04 -1.56734315778979449e-01 4.98601077215987121e-01 -1.56734315778979449e-01 4.98601077215987121e-01 -4.26092421258600091e-04 -2.73211910131535983e-04
8.73000000000000000e+09 -7.76975335379983070e-04 1.01856967394164499e-04 4.91855477560432242e-03 5.22227364293625262e-01 4.91855477560432242e-03 5.22227364293625262e-01 5.76136369468763731e-04 -3.30768589048220955e-04
8.74000000000000000e+09 7.62631137848963849e-04 -3.73317762788966015e-04 1.66450879802659740e-01 4.92825694901954381e-01 1.66450879802659740e-01 4.92825694901954381e-01 -2.19207543692169293e-04 8.66561776170837088e-04
8.75000000000000000e+09 1.40565721382040587e-03 1.78502732916204442e-03 3.11268791357381280e-01 4.17132066861277628e-01 3.11268791357381280e-01 4.17132066861277628e-01 -5.54252257515103593e-05 3.79837831836519373e-04
8.76000000000000000e+09 2.26734644114008008e-04 9.04816271224681947e-04 4.26041244210899783e-01 3.01111502579987977e-01 4.26041244210899783e-01 3.01111502579987977e-01 3.62001943628574672e-04 1.44105350385036391e-04
8.77000000000000000e+09 7.65452442217522816e-04 6.87911674673682624e-04 4.96400099294975417e-01 1.54338430134490584e-01 4.96400099294975417e-01 1.54338430134490584e-01 6.17971863156103378e-04 -3.50697475972250078e-04
8.78000000000000000e+09 -5.13070018601678376e-05 -9.57999403977056194e-04 5.19673966715952007e-01 -7.19670737256450106e-03 5.19673966715952007e-01 -7.19670737256450106e-03 4.00829682255136237e-04 -7.72441777470559516e-04
8.79000000000000000e+09 1.80592519567681275e-03 2.22156665273214412e-04 4.92515129859599499e-01 -1.67346019290722708e-01 4.92515129859599499e-01 -1.67346019290722708e-01 7.41832098227344547e-04 9.36489744446733084e-04
8.80000000000000000e+09 -1.73948845237482540e-04 -1.15380792932301825e-03 4.15116291781789271e-01 -3.11214186186188735e-01 4.15116291781789271e-01 -3.11214186186188735e-01 3.99410876726130875e-04 1.22483733088995443e-03
8.81000000000000000e+09 -6.99383421024022105e-04 1.04724835924167674e-03 2.99140428829743399e-01 -4.25223538969134507e-01 2.99140428829743399e-01 -4.25223538969134507e-01 1.40090081951730651e-03 -2.51172190428798462e-04
8.82000000000000000e+09 -1.25967605814428121e-03 -1.17006868518643192e-04 1.53371649239537833e-01 -4.96204101662045205e-01 1.53371649239537833e-01 -4.96204101662045205e-01 3.77552288332522862e-04 -1.12666388385984203e-04
8.83000000000000000e+09 2.41561071491750345e-04 4.71481653570917649e-04 -8.38731917066694310e-03 -5.19408351392569023e-01 -8.38731917066694310e-03 -5.19408351392569023e-01 1.47002475670126524e-04 -8.54958919001457571e-04
8.84000000000000000e+09 -6.58643480137880723e-04 6.07522127318730308e-04 -1.67067083956883689e-01 -4.92049347831049921e-01 -1.67067083956883689e-01 -4.92049347831049921e-01 1.29459794221235933e-04 -3.14171510972981400e-04
8.85000000000000000e+09 9.46112067766812165e-04 -2.45449684594402232e-04 -3.11946323405516035e-01 -4.13619699588250123e-01 -3.11946323405516035e-01 -4.13619699588250123e-01 6.30060232371863500e-04 -1.88492555750031265e-04
8.86000000000000000e+09 5.04426367744290624e-04 -3.66846617442236219e-04 -4.25447411997202041e-01 -2.97384645304437145e-01 -4.25447411997202041e-01 -2.97384645304437145e-01 1.13743345306135035e-03 -1.72880912514074026e-04
8.87000000000000000e+09 1.92864736757278462e-03 -5.96337384337850018e-04 -4.95052282424115864e-01 -1.52089058668642418e-01 -4.95052282424115864e-01 -1.52089058668642418e-01 -9.32310174852573822e-04 8.46240723629581985e-04
8.88000000000000000e+09 -5.76709049911633973e-04 -9.86865684006945233e-04 -5.19867153993003539e-01 8.73799788955239090e-03 -5.19867153993003539e-01 8.73799788955239090e-03 -5.54978302140830067e-04 -3.61942681604862637e-04
8.89000000000000000e+09 1.27158765701129760e-03 -6.07582260434325321e-04 -4.89198439836183330e-01 1.68911547320868521e-01 -4.89198439836183330e-01 1.68911547320868521e-01 -6.63101675565743354e-04 7.87354796567462148e-04
8.90000000000000000e+09 -8.76050627048272860e-04 5.82006291693621769e-04 -4.13995256709018378e-01 3.11846390558594699e-01 -4.13995256709018378e-01 3.11846390558594699e-01 7.84462401422000876e-04 -5.40058567499635228e-04
8.91000000000000000e+09 3.66676023822579242e-04 8.34332073816193846e-04 -2.95580942882294917e-01 4.24887940041278778e-01 -2.95580942882294917e-01 4.24887940041278778e-01 -4.36385471066634881e-04 8.20335879435355429e-04
8.92000000000000000e+09 1.05793326978256220e-04 -7.83476561306922049e-05 -1.51233428024767358e-01 4.95652187134462907e-01 -1.51233428024767358e-01 4.95652187134462907e-01 -1.20891663268560306e-04 -2.39441920811587177e-04
8.93000000000000000e+09 -2.00934094389197329e-04 2.00906353280480609e-03 9.64811547104933373e-03 5.16865146693538335e-01 9.64811547104933373e-03 5.16865146693538335e-01 4.35516550258225590e-04 3.05069113028179307e-04
8.94000000000000000e+09 -3.15442403133631599e-04 -9.39899905100928567e-04 1.69262558908517352e-01 4.89369577533121991e-01 1.69262558908517352e-01 4.89369577533121991e-01 -6.09668626189748116e-04 4.24018050265015584e-04
8.95000000000000000e+09 8.72713091120042722e-04 -7.25981371295847150e-04 3.13365172963246730e-01 4.12508060758660033e-01 3.13365172963246730e-01 4.12508060758660033e-01 1.40510974479218613e-03 -3.73712040889596128e-04
8.96000000000000000e+09 5.98604458051115351e-04 -4.46739945912216860e-04 4.24189661732812640e-01 2.96056135915021390e-01 4.24189661732812640e-01 2.96056135915021390e-01 -6.34503737393419132e-04 -2.27189303872019381e-04
8.97000000000000000e+09 -7.20750979460708756e-04 8.97301920257510040e-04 4.94543679884749954e-01 1.49763210495401283e-01 4.94543679884749954e-01 1.49763210495401283e-01 -8.52592537191704204e-04 4.77489594852042293e-04
8.98000000000000000e+09 5.63806847539708800e-04 -5.34368391748456283e-04 5.16603348484428571e-01 -1.04770825382265592e-02 5.16603348484428571e-01 -1.04770825382265592e-02 -9.23343031985008472e-04 1.02261597037929660e-03
8.99000000000000000e+09 -1.27164757415014853e-04 1.20034185704708362e-04 4.88191542286453561e-01 -1.70794807358935291e-01 4.88191542286453561e-01 -1.70794807358935291e-01 8.44148500585720630e-04 2.65396600241728979e-04
9.00000000000000000e+09 1.83084874515173355e-04 -3.85033447382224431e-04 4.11412927604999479e-01 -3.12406794005290644e-01 4.11412927604999479e-01 -3.12406794005290644e-01 2.62051975336423729e-04 -2.23450269155889752e-04
9.01000000000000000e+09 -2.83995535483955348e-04 -3.70667941763655375e-04 2.94195140569637303e-01 -4.23975488608515028e-01 2.94195140569637303e-01 -4.23975488608515028e-01 1.26654966592885482e-04 -2.71404032117635746e-04
9.02000000000000000e+09 -3.71395732320017619e-04 4.73832329299911869e-04 1.48632672152971268e-01 -4.94481261741729572e-01 1.48632672152971268e-01 -4.94481261741729572e-01 2.54323414930098409e-05 2.57640135867604717e-04
9.03000000000000000e+09 3.09877773972149081e-04 -2.19528125105814112e-04 -1.16165451091864835e-02 -5.15088283832721761e-01 -1.16165451091864835e-02 -5.15088283832721761e-01 3.46337833701920164e-05 3.97958550504168361e-04
9.04000000000000000e+09 -1.23147971247940225e-03 6.82042899565059703e-04 -1.68794118186820163e-01 -4.85255920532217999e-01 -1.68794118186820163e-01 -4.85255920532217999e-01 5.49495713919078148e-04 -3.91149734733312689e-04
9.05000000000000000e+09 3.49651356222886560e-04 -1.15317105213497357e-03 -3.11198491905181895e-01 -4.08401006770167496e-01 -3.11198491905181895e-01 -4.08401006770167496e-01 7.44629565419276194e-04 4.77862605295388478e-04
9.06000000000000000e+09 3.80421949812838008e-04 -8.73477443995854621e-04 -4.23216159591622065e-01 -2.92795856044994529e-01 -4.23216159591622065e-01 -2.92795856044994529e-01 1.21816781020247502e-03 -5.44431984310295874e-04
9.07000000000000000e+09 2.30051551844969810e-04 9.20662260841326988e-04 -4.94231535830388868e-01 -1.47379441255423294e-01 -4.94231535830388868e-01 -1.47379441255423294e-01 -1.01648773123111662e-03 7.61612527807623832e-04
9.08000000000000000e+09 1.01895337258309346e-03 3.80135099778191709e-04 -5.14594023427528136e-01 1.20752670442587397e-02 -5.14594023427528136e-01 1.20752670442587397e-02 4.24550232368399525e-04 6.16689547570318912e-05
9.09000000000000000e+09 -1.49231298094512190e-05 1.08624295003281312e-03 -4.84837534741516085e-01 1.71533243618902570e-01 -4.84837534741516085e-01 1.71533243618902570e-01 -5.50028157990227603e-04 -7.36002915759441292e-04
9.10000000000000000e+09 3.75670803063689047e-04 1.42135143781107272e-03 -4.09886684676409208e-01 3.12879194938344374e-01 -4.09886684676409208e-01 3.12879194938344374e-01 -1.49645316289032869e-04 -1.02299853204630350e-03
9.11000000000000000e+09 -9.10701743898165378e-04 8.33833364703408285e-04 -2.91429362683545246e-01 4.22921172595316475e-01 -2.91429362683545246e-01 4.22921172595316475e-01 1.07460319437045626e-04 -1.12800246290470298e-03
9.12000000000000000e+09 -6.81090477766822767e-05 -2.57162729481520724e-04 -1.45970370184438925e-01 4.92051528241638170e-01 -1.45970370184438925e-01 4.92051528241638170e-01 -1.20264348399833337e-03 1.31682229025230032e-03
9.13000000000000000e+09 -7.22257899878958587e-04 2.03363456518158289e-04 1.33545623278467068e-02 5.13515210140853773e-01 1.33545623278467068e-02 5.13515210140853773e-01 3.04002291380771718e-04 -4.12467689546892750e-04
9.14000000000000000e+09 2.14785436290899077e-04 -3.76835453587340329e-04 1.70446390003463816e-01 4.85378012596613506e-01 1.70446390003463816e-01 4.85378012596613506e-01 9.45469559870297147e-04 -7.95325591964452221e-05
9.15000000000000000e+09 -5.12623319419646496e-05 8.31166007901654744e-04 3.13991426544581675e-01 4.06043118727788699e-01 3.13991426544581675e-01 4.06043118727788699e-01 5.04421508452835405e-04 -2.42209008289304611e-04
9.16000000000000000e+09 8.40301104157487326e-04 -9.50534267292696389e-04 4.23647262847533512e-01 2.89394179741786495e-01 4.23647262847533512e-01 2.89394179741786495e-01 -3.02371761501148768e-04 -1.37492446854806359e-05
9.17000000000000000e+09 -1.61866401849835076e-04 1.94965435967930879e-03 4.92720777502308971e-01 1.45701055021496190e-01 4.92720777502308971e-01 1.45701055021496190e-01 -2.30868355207898047e-04 -9.11561389748085824e-05
9.18000000000000000e+09 -1.31954693756116737e-03 1.22298482797827913e-03 5.12629120861874621e-01 -1.38217976337233657e-02 5.12629120861874621e-01 -1.38217976337233657e-02 1.88537293847607828e-04 6.07991579078738303e-04
9.19000000000000000e+09 3.35534600660682180e-04 2.99122006116644544e-04 4.83359671332215690e-01 -1.70614769096106872e-01 4.83359671332215690e-01 -1.70614769096106872e-01 1.42887846627534577e-03 -1.27628057869047041e-03
9.20000000000000000e+09 -1.03964347704981592e-03 -3.70709431594616753e-04 4.07018607577745661e-01 -3.13087342160825122e-01 4.07018607577745661e-01 -3.13087342160825122e-01 5.22304622347456358e-04 1.05499141990451664e-04
9.21000000000000000e+09 8.19737817106269503e-06 -8.23299514402692635e-04 2.87981324981258835e-01 -4.24484463446933580e-01 2.87981324981258835e-01 -4.24484463446933580e-01 6.52637477001055943e-05 6.54756557758939773e-04
9.22000000000000000e+09 4.37119810963074065e-04 6.80368183205839919e-04 1.43819465522014023e-01 -4.92127856679544118e-01 1.43819465522014023e-01 -4.92127856679544118e-01 -3.16485428601976260e-04 -2.46466459205959317e-04
9.23000000000000000e+09 -4.12413722306992738e-04 -1.42757560571771724e-03 -1.58023481646256403e-02 -5.12347746688281980e-01 -1.58023481646256403e-02 -5.12347746688281980e-01 4.63162874876035151e-04 -3.79791853025792942e-04
9.24000000000000000e+09 4.13629134850861861e-04 -3.36445742517349752e-05 -1.72044413709791705e-01 -4.82121473751422114e-01 -1.72044413709791705e-01 -4.82121473751422114e-01 -5.39679919270103989e-04 2.32986458345070416e-04
9.25000000000000000e+09 9.52517466904424575e-04 5.20207980451705570e-04 -3.11394196853321814e-01 -4.04695193506413142e-01 -3.11394196853321814e-01 -4.04695193506413142e-01 7.78469084185484325e-05 6.72359775963652306e-05
9.26000000000000000e+09 8.17285598418173798e-04 -1.19960018495559912e-03 -4.23698377760212352e-01 -2.88260699216820016e-01 -4.23698377760212352e-01 -2.88260699216820016e-01 1.68902519534263489e-03 6.29026230862625543e-04
9.27000000000000000e+09 4.50861767956564326e-04 -7.08974224809702557e-04 -4.89966761298022302e-01 -1.43044669337612118e-01 -4.89966761298022302e-01 -1.43044669337612118e-01 2.14117740628586749e-04 -3.60746514047254041e-04
9.28000000000000000e+09 -1.11242414741293699e-03 -2.04005857710867360e-04 -5.10376967873397147e-01 1.60533599804470566e-02 -5.10376967873397147e-01 1.60533599804470566e-02 1.56436724097050787e-06 -9.21621270709507075e-04
9.29000000000000000e+09 6.58603421808926013e-04 5.85603325194867098e-04 -4.81103112851059056e-01 1.74043984867517876e-01 -4.81103112851059056e-01 1.74043984867517876e-01 -2.13560923824054763e-03 -1.97355991977910482e-04
9.30000000000000000e+09 -4.56489326567926035e-05 1.40043188444697117e-04 -4.03430707452360815e-01 3.13306775564590467e-01 -4.03430707452360815e-01 3.13306775564590467e-01 5.21495952930899520e-04 3.69423268548816882e-04
9.31000000000000000e+09 -6.03047420394016366e-04 -1.96245114123382784e-04 -2.86656820225839493e-01 4.24002040732563645e-01 -2.86656820225839493e-01 4.24002040732563645e-01 -2.57499017190927022e-04 7.28428911377361639e-04
9.32000000000000000e+09 -5.15724185494615284e-04 -4.26716663227248293e-04 -1.41180886580695025e-01 4.89295195100597935e-01 -1.41180886580695025e-01 4.89295195100597935e-01 -1.93708404988677152e-04 9.36243947284676171e-04
9.33000000000000000e+09 -3.44001138976713847e-04 -3.25995027105476377e-04 1.65307130539505756e-02 5.08716868195052907e-01 1.65307130539505756e-02 5.08716868195052907e-01 -2.11063583714212106e-04 8.20133449693787216e-04
9.34000000000000000e+09 1.09094911869067135e-03 -9.73274869565662632e-04 1.73658592418940411e-01 4.79024005493019212e-01 1.73658592418940411e-01 4.79024005493019212e-01 -4.60514606548247747e-04 -8.03096620923313305e-04
9.35000000000000000e+09 7.97673954348845817e-05 -4.21003762678804261e-05 3.14046017961785939e-01 4.02164415705093148e-01 3.14046017961785939e-01 4.02164415705093148e-01 1.17643538203174351e-05 -1.59178533065996726e-04
9.36000000000000000e+09 2.99163104043670349e-04 -5.94651388570630176e-04 4.22741075686217660e-01 2.85270702467034232e-01 4.22741075686217660e-01 2.85270702467034232e-01 5.40525792856525909e-04 5.24728728974817381e-04
9.37000000000000000e+09 1.65832653494041304e-04 8.42512431019942407e-04 4.88636061178184256e-01 1.40578614805336732e-01 4.88636061178184256e-01 1.40578614805336732e-01 -7.67945616612397041e-05 -1.32146234340609330e-03
9.38000000000000000e+09 -4.53284699345381551e-04 4.65188815543193096e-04 5.09386114458993733e-01 -1.75728402223255288e-02 5.09386114458993733e-01 -1.75728402223255288e-02 9.12579568913248385e-04 1.01313298107351698e-05
9.39000000000000000e+09 -2.58604782710136890e-04 -5.76687837997731743e-04 4.78730826837301116e-01 -1.74684193029328944e-01 4.78730826837301116e-01 -1.74684193029328944e-01 2.69907283930750225e-04 7.28980751458096002e-04
9.40000000000000000e+09 -1.56199742183077514e-04 2.97310881612951057e-04 4.01655822920169603e-01 -3.13912769881491471e-01 4.01655822920169603e-01 -3.13912769881491471e-01 -3.18864569960412283e-04 -8.56493212934445521e-04
9.41000000000000000e+09 -4.78145893364305408e-04 7.02762700182843784e-04 2.83278606023101953e-01 -4.22772194690699654e-01 2.83278606023101953e-01 -4.22772194690699654e-01 7.47801543534238645e-04 7.49926590329406929e-04
9.42000000000000000e+09 -5.21193166561518140e-04 -3.18924539451411870e-04 1.38822558841066201e-01 -4.89335745283317802e-01 1.38822558841066201e-01 -4.89335745283317802e-01 7.59239866956525652e-04 5.39113842507254418e-04
9.43000000000000000e+09 2.50695095482385180e-04 -1.07709650121421725e-04 -1.88551546924294253e-02 -5.08248434157571261e-01 -1.88551546924294253e-02 -5.08248434157571261e-01 -5.99651191990056972e-04 5.93026281542503040e-04
9.44000000000000000e+09 1.66353715304918187e-04 -2.78867334687396367e-04 -1.75644089437265422e-01 -4.78576158303690491e-01 -1.75644089437265422e-01 -4.78576158303690491e-01 1.38122178456621622e-04 5.28151046148462363e-04
9.45000000000000000e+09 1.03521273051512540e-04 1.26663097188159623e-04 -3.13833274988464694e-01 -4.00116385160276311e-01 -3.13833274988464694e-01 -4.00116385160276311e-01 1.34117341028780116e-04 -7.93719973435979306e-04
9.46000000000000000e+09 4.31778426928860278e-04 -9.56468113789064574e-04 -4.23069283277202834e-01 -2.82737854743446593e-01 -4.23069283277202834e-01 -2.82737854743446593e-01 -7.36893929107073579e-04 2.13678890152836393e-04
9.47000000000000000e+09 5.10469123081762929e-04 1.03400165353087991e-03 -4.88481224204844577e-01 -1.37549297667799025e-01 -4.88481224204844577e-01 -1.37549297667799025e-01 5.97754209406232409e-04 1.71659521432716670e-03
9.48000000000000000e+09 1.19515350698352028e-03 -5.67491349118632161e-04 -5.05912915800065588e-01 2.00234619764631909e-02 -5.05912915800065588e-01 2.00234619764631909e-02 6.97399760566571225e-04 7.69345189080878505e-04
9.49000000000000000e+09 7.39905647739636001e-05 -5.21084579741153847e-04 -4.75066799664708328e-01 1.75470153228533765e-01 -4.75066799664708328e-01 1.75470153228533765e-01 -4.16473599735106841e-04 3.33291025456891631e-04
9.50000000000000000e+09 1.44076538485527985e-04 1.34375456206103222e-04 -3.98325932748839207e-01 3.12216051883138113e-01 -3.98325932748839207e-01 3.12216051883138113e-01 -3.22578619203006212e-04 1.23110667175490966e-04
9.51000000000000000e+09 -5.11856506406820327e-04 -1.24754912972114824e-03 -2.81101626068370580e-01 4.21175537245387921e-01 -2.81101626068370580e-01 4.21175537245387921e-01 -1.07045950232265890e-03 2.51666502626042403e-04
9.52000000000000000e+09 -1.35607430738262638e-03 -4.16937627401459869e-04 -1.36438916867287041e-01 4.88564005882497043e-01 -1.36438916867287041e-01 4.88564005882497043e-01 2.91623188885898374e-04 -2.11074120602249655e-04
9.53000000000000000e+09 5.84509401324724196e-04 7.38748223331382693e-04 2.03829779202289903e-02 5.06042731726072503e-01 2.03829779202289903e-02 5.06042731726072503e-01 3.37152742734918613e-04 1.01993374360917737e-04
9.54000000000000000e+09 -3.40134258845906426e-04 -3.57667111943479595e-04 1.75591902978587233e-01 4.75876111498700127e-01 1.75591902978587233e-01 4.75876111498700127e-01 -7.80874992839326572e-04 2.54962871074686573e-04
9.55000000000000000e+09 1.26219601802133913e-03 1.41554136233368408e-03 3.13410388695550601e-01 3.97911303504626446e-01 3.13410388695550601e-01 3.97911303504626446e-01 1.10733226771977012e-03 4.55679029269751999e-04
9.56000000000000000e+09 -8.45082543975208232e-04 1.05674061460815823e-03 4.20676854317226401e-01 2.79297881310673901e-01 4.20676854317226401e-01 2.79297881310673901e-01 8.59825690473877986e-04 -2.64973324253751398e-04
9.57000000000000000e+09 4.10832217201463872e-04 -7.24217147719913973e-04 4.87436253642410222e-01 1.36235381149215712e-01 4.87436253642410222e-01 1.36235381149215712e-01 -6.47824884175117531e-04 -1.48005987343581764e-05
9.58000000000000000e+09 6.81177158749263017e-04 -8.63758705990065948e-04 5.04558737383600131e-01 -2.09418802023860866e-02 5.04558737383600131e-01 -2.09418802023860866e-02 2.15725573559770288e-04 2.76499520914948638e-04
9.59000000000000000e+09 -5.02800486461720052e-04 5.88970764764829339e-04 4.74711482425469344e-01 -1.77197793912936163e-01 4.74711482425469344e-01 -1.77197793912936163e-01 2.83219737959901059e-04 -5.12841192939114004e-04
9.60000000000000000e+09 9.46078187054051546e-04 4.31635691992742550e-05 3.95554111691046484e-01 -3.13398661829555392e-01 3.95554111691046484e-01 -3.13398661829555392e-01 -4.97204753010375305e-04 1.07423616567284665e-03
9.61000000000000000e+09 -9.57131185198502321e-04 9.36182132255724631e-04 2.79130222517520232e-01 -4.20884677449042288e-01 2.79130222517520232e-01 -4.20884677449042288e-01 8.39346595014251991e-04 4.73923856013684208e-04
9.62000000000000000e+09 3.77638622771127221e-04 1.51645012825196625e-03 1.34468704541244599e-01 -4.86023046341881260e-01 1.34468704541244599e-01 -4.86023046341881260e-01 -3.12971149893526894e-04 -6.02987058376326158e-04
9.63000000000000000e+09 -3.12538496451085382e-04 3.41589816649987541e-04 -2.21726768098583979e-02 -5.03541903015964354e-01 -2.21726768098583979e-02 -5.03541903015964354e-01 4.90855154480404707e-04 -6.61282928985370850e-04
9.64000000000000000e+09 9.96767710853673362e-05 9.43627610973652906e-04 -1.76489130652684872e-01 -4.72127940151329861e-01 -1.76489130652684872e-01 -4.72127940151329861e-01 3.12900113647334344e-04 -7.44799586289965343e-04
9.65000000000000000e+09 -7.11635393344074068e-04 -1.89395292525609284e-04 -3.14296064504565986e-01 -3.94895341897364749e-01 -3.14296064504565986e-01 -3.94895341897364749e-01 -7.01145936712689317e-04 4.35381280363680552e-04
9.66000000000000000e+09 6.94269970892748701e-05 1.96364680498477620e-03 -4.20502339550855697e-01 -2.77823089815107838e-01 -4.20502339550855697e-01 -2.77823089815107838e-01 -5.44446221277668794e-04 8.14973000630632785e-04
9.67000000000000000e+09 -9.24697450073786982e-04 -1.30546938791225534e-03 -4.85764009325205581e-01 -1.34410509667981209e-01 -4.85764009325205581e-01 -1.34410509667981209e-01 -8.03233954830947421e-05 2.78571130333517931e-04
9.68000000000000000e+09 8.20867250709383890e-04 4.48030633029434567e-04 -5.03778774184627687e-01 2.31421030958662531e-02 -5.03778774184627687e-01 2.31421030958662531e-02 1.15298896767602305e-03 2.45357955393918584e-06
9.69000000000000000e+09 4.65213551880591105e-04 -1.09817512585093900e-04 -4.72412991041091135e-01 1.77932413607274853e-01 -4.72412991041091135e-01 1.77932413607274853e-01 -4.69448075040789197e-04 1.80323474973451007e-03
9.70000000000000000e+09 2.45639932888131067e-05 5.65872032565036313e-04 -3.93268435734774102e-01 3.14974282740125511e-01 -3.93268435734774102e-01 3.14974282740125511e-01 -6.20447237823851857e-04 3.79935401228765734e-04
9.71000000000000000e+09 -1.27305673723939155e-03 -1.09572315461375479e-03 -2.76729437924537691e-01 4.20295561612888224e-01 -2.76729437924537691e-01 4.20295561612888224e-01 -1.54625515398082507e-04 1.60026523829307410e-03
9.72000000000000000e+09 4.07058748126606690e-04 -1.21067347369346380e-03 -1.32669080438419545e-01 4.86309027810206684e-01 -1.32669080438419545e-01 4.86309027810206684e-01 -7.52568765619040939e-04 6.69096783777034233e-05
9.73000000000000000e+09 5.48428006763680763e-04 -7.35405194192251374e-05 2.34127667503497214e-02 5.03836572680841033e-01 2.34127667503497214e-02 5.03836572680841033e-01 6.75098903283333825e-04 -2.70942246431656692e-04
9.74000000000000000e+09 -3.26379075037299196e-04 -3.89193080458707973e-04 1.77631495633913644e-01 4.70673635467705020e-01 1.77631495633913644e-01 4.70673635467705020e-01 -2.52278431827971895e-06 7.43633185599465213e-04
9.75000000000000000e+09 5.43452180543551179e-04 7.39959815247717635e-04 3.14823573682138258e-01 3.92584364427575550e-01 3.14823573682138258e-01 3.92584364427575550e-01 -9.10000966439275939e-04 -2.12026502092834166e-04
9.76000000000000000e+09 6.85083775897675495e-04 6.65584900724730224e-05 4.19842511349296954e-01 2.75247216000441053e-01 4.19842511349296954e-01 2.75247216000441053e-01 -1.01204806783940422e-03 1.40841030426768312e-04
9.77000000000000000e+09 -1.19254511385480030e-03 -2.91107665970237429e-04 4.85608744550996008e-01 1.30771089371064853e-01 4.85608744550996008e-01 1.30771089371064853e-01 1.07274978316235507e-03 1.87846373390016811e-06
9.78000000000000000e+09 -3.80669262456492341e-04 3.43597485268047761e-04 5.01292066703594053e-01 -2.41019852608475270e-02 5.01292066703594053e-01 -2.41019852608475270e-02 -3.63080298378771154e-05 4.22091182211116564e-04
9.79000000000000000e+09 -8.83801360625617182e-04 1.10414303322875149e-03 4.69201881704468970e-01 -1.78245642061456128e-01 4.69201881704468970e-01 -1.78245642061456128e-01 3.89291476181783292e-04 2.93817093331647406e-04
9.80000000000000000e+09 -2.96954749607976213e-04 -1.92325895515241469e-04 3.90906801677922189e-01 -3.14654684493723746e-01 3.90906801677922189e-01 -3.14654684493723746e-01 -2.91082687101958300e-04 -1.60678467784135492e-04
9.81000000000000000e+09 7.18643543300379549e-04 -2.12435328476360142e-03 2.73458056441115704e-01 -4.20135325340934618e-01 2.73458056441115704e-01 -4.20135325340934618e-01 -3.29140840645521086e-04 5.68087356159557464e-04
9.82000000000000000e+09 1.00765848576355442e-03 -6.47692894709032073e-04 1.30799912088100267e-01 -4.84411143575270875e-01 1.30799912088100267e-01 -4.84411143575270875e-01 1.69865232944114031e-03 -2.47441749773766827e-04
9.83000000000000000e+09 5.22793269067688290e-04 1.23169321248562855e-03 -2.46568029198478873e-02 -5.00755543109052459e-01 -2.46568029198478873e-02 -5.00755543109052459e-01 4.58674246899976707e-04 -6.80540205853199165e-05
9.84000000000000000e+09 -5.32535888298594183e-04 -3.28993012331305762e-04 -1.78358605410857046e-01 -4.68252683404439096e-01 -1.78358605410857046e-01 -4.68252683404439096e-01 -6.99058351397137748e-04 -1.41628321886892676e-05
9.85000000000000000e+09 -1.15639751271152903e-03 1.13596518500299021e-03 -3.14624448839950777e-01 -3.89234833713448913e-01 -3.14624448839950777e-01 -3.89234833713448913e-01 7.05180632691297595e-04 -9.73625283644516718e-04
9.86000000000000000e+09 8.75150265391244457e-04 4.13228517811707705e-04 -4.19512861994900843e-01 -2.72639836182468953e-01 -4.19512861994900843e-01 -2.72639836182468953e-01 -4.87842433759912343e-05 1.69782666583387902e-04
9.87000000000000000e+09 -9.57630669707679996e-05 1.51233620935524275e-03 -4.83094260281894394e-01 -1.30368121440604945e-01 -4.83094260281894394e-01 -1.30368121440604945e-01 7.08868894098962487e-04 -1.09483166617368565e-04
9.88000000000000000e+09 1.92376138980640862e-05 2.00160900233471950e-05 -4.99227931994885799e-01 2.55809492262395882e-02 -4.99227931994885799e-01 2.55809492262395882e-02 8.18513341830961203e-04 -5.05908196322793968e-04
9.89000000000000000e+09 8.49324959780165109e-04 -5.29411253946087822e-04 -4.66048034158776381e-01 1.79970197229814444e-01 -4.66048034158776381e-01 1.79970197229814444e-01 5.91494245858663098e-04 -6.84751747843279860e-04
9.90000000000000000e+09 1.22478070642822686e-03 5.03857394934523694e-04 -3.88926762822095651e-01 3.14648105049107896e-01 -3.88926762822095651e-01 3.14648105049107896e-01 1.18762224536062911e-03 -2.42791079266250587e-04
9.91000000000000000e+09 5.48376156573782107e-05 -1.54182288663617419e-03 -2.72803722111472968e-01 4.19674203984205574e-01 -2.72803722111472968e-01 4.19674203984205574e-01 8.90397077469323755e-05 -3.40111186105085373e-04
9.92000000000000000e+09 2.27981611283708667e-04 -8.03350812376257286e-04 -1.29488419095759172e-01 4.83796452719895853e-01 -1.29488419095759172e-01 4.83796452719895853e-01 2.10498892352963470e-05 -6.87013318078995533e-04
9.93000000000000000e+09 -1.54522738690857260e-03 -4.13439253662678844e-04 2.83115159596603050e-02 4.97705872796648074e-01 2.83115159596603050e-02 4.97705872796648074e-01 -1.83174481315169691e-04 -7.87292804488654171e-04
9.94000000000000000e+09 -3.32992114365678238e-06 -1.51968498394030140e-04 1.80686810685070476e-01 4.63765120257902397e-01 1.80686810685070476e-01 4.63765120257902397e-01 7.88025083296188989e-06 -1.45757436430592733e-03
9.95000000000000000e+09 -8.89033418789925384e-04 3.88038710722664153e-05 3.13787734955168540e-01 3.86792519207825536e-01 3.13787734955168540e-01 3.86792519207825536e-01 4.67929303550060588e-04 7.25631625445119759e-04
9.96000000000000000e+09 5.64906132470681128e-04 -7.14272966749397503e-04 4.18990547630542109e-01 2.71068665230437544e-01 4.18990547630542109e-01 2.71068665230437544e-01 -1.41637415208193881e-03 1.11320446143261045e-03
9.97000000000000000e+09 2.30559857066915864e-04 2.81225538703931254e-04 4.82238992748361184e-01 1.28487113452225937e-01 4.82238992748361184e-01 1.28487113452225937e-01 4.35796418550386149e-04 1.42847013171410207e-04
9.98000000000000000e+09 -5.61089926523925583e-04 -4.80128798453806512e-04 4.96390635789436374e-01 -2.83808587874957649e-02 4.96390635789436374e-01 -2.83808587874957649e-02 -3.88152647889839712e-04 1.09011763652086752e-03
9.99000000000000000e+09 5.46119023846523138e-04 9.93510529968082189e-04 4.65389791652719986e-01 -1.79870510159888558e-01 4.65389791652719986e-01 -1.79870510159888558e-01 -2.45857411527870199e-04 6.54242518656480369e-04
1.00000000000000000e+10 -3.97861427045817929e-04 7.54871682701187415e-04 3.84617379856834696e-01 -3.14855377006488080e-01 3.84617379856834696e-01 -3.14855377006488080e-01 8.40805773275431125e-04 1.98256984960885890e-04
1.00100000000000000e+10 -3.21058758330250850e-04 1.16988532804491226e-03 2.68839772516409781e-01 -4.18279297958989382e-01 2.68839772516409781e-01 -4.18279297958989382e-01 -6.32744178995929270e-04 5.77299293497677527e-04
1.00200000000000000e+10 -2.82769901883689844e-04 5.13526820287452332e-05 1.26757351026418719e-01 -4.81507170651116700e-01 1.26757351026418719e-01 -4.81507170651116700e-01 -2.71077063053241061e-04 -2.36677870423864086e-04
1.00300000000000000e+10 9.52299055491350865e-04 -4.38326339598620503e-06 -2.82645388161536330e-02 -4.97458470427489030e-01 -2.82645388161536330e-02 -4.97458470427489030e-01 2.58292626231709473e-04 2.17892023523381115e-03
1.00400000000000000e+10 9.13543882108808908e-04 3.39114270340148331e-04 -1.81837280923904332e-01 -4.64674296201732062e-01 -1.81837280923904332e-01 -4.64674296201732062e-01 9.75931140182582940e-05 7.34551404815427878e-04
1.00500000000000000e+10 5.57761303317586910e-04 -5.89855728800803042e-04 -3.14817597977549712e-01 -3.85679214705611229e-01 -3.14817597977549712e-01 -3.85679214705611229e-01 -3.01247030279937938e-04 -1.01713056866801631e-03
1.00600000000000000e+10 -8.49027556141976358e-04 7.17485959236894037e-04 -4.20097683348916950e-01 -2.70043676756662021e-01 -4.20097683348916950e-01 -2.70043676756662021e-01 3.48637591393570511e-04 -1.50507992345756323e-04
1.00700000000000000e+10 -6.05842546125990043e-05 -1.74670456589151113e-03 -4.81159478283676945e-01 -1.25426099936466473e-01 -4.81159478283676945e-01 -1.25426099936466473e-01 1.24745459233784192e-04 1.78798367454826180e-03
1.00800000000000000e+10 -3.54432075372676576e-05 5.11372597214357458e-04 -4.96430214916118162e-01 2.97863961386992497e-02 -4.96430214916118162e-01 2.97863961386992497e-02 5.29826371804592382e-04 1.17440576432069449e-04
1.00900000000000000e+10 -9.50396582333976015e-04 4.64705623331192587e-05 -4.63243785892071214e-01 1.81032037394190409e-01 -4.63243785892071214e-01 1.81032037394190409e-01 -9.21195374496922058e-04 -9.82628873715237026e-04
1.01000000000000000e+10 -2.42072599359001092e-04 9.36118752726090224e-04 -3.83062667086684017e-01 3.14990592404769953e-01 -3.83062667086684017e-01 3.14990592404769953e-01 -5.39455260488752304e-04 3.05089320196022778e-04
1.01100000000000000e+10 1.03065532317117608e-04 -5.79358048736376349e-04 -2.66338582758191555e-01 4.19072741378486047e-01 -2.66338582758191555e-01 4.19072741378486047e-01 1.24920991889245956e-03 5.59389722994358589e-04
1.01200000000000000e+10 6.03723685459629507e-04 -3.49604611240049131e-04 -1.24745859200101103e-01 4.79113680699129463e-01 -1.24745859200101103e-01 4.79113680699129463e-01 -1.04982091158999980e-03 1.15745839295439067e-05
1.01300000000000000e+10 -1.75987991748029595e-03 5.13194513427660799e-05 2.99056678907881381e-02 4.94700838845157698e-01 2.99056678907881381e-02 4.94700838845157698e-01 8.43488010535984668e-05 -4.08397574344183283e-04
1.01400000000000000e+10 -2.99871844684386458e-04 4.34783801026595424e-04 1.83322547386907120e-01 4.60318666513259644e-01 1.83322547386907120e-01 4.60318666513259644e-01 -9.00191454674590568e-04 -3.62314507133783780e-04
1.01500000000000000e+10 -4.22265201332994286e-04 1.09740421342956543e-03 3.14020032248776781e-01 3.82891827694428755e-01 3.14020032248776781e-01 3.82891827694428755e-01 8.19280491517444505e-04 1.27504219454786257e-04
1.01600000000000000e+10 -4.21002674442831517e-04 -1.42221655555204948e-03 4.16996289266493070e-01 2.66778419737276673e-01 4.16996289266493070e-01 2.66778419737276673e-01 -1.16243617512534357e-04 2.06880449417004342e-04
1.01700000000000000e+10 1.02811932488074565e-03 -7.17839397880464533e-04 4.81213173120544735e-01 1.23060847245739652e-01 4.81213173120544735e-01 1.23060847245739652e-01 -1.76517581522644956e-04 3.08780156341870380e-06
1.01800000000000000e+10 4.40590569705300006e-04 -1.84111231883408809e-04 4.93983264511943188e-01 -3.13079849802708962e-02 4.93983264511943188e-01 -3.13079849802708962e-02 -1.58374716493887168e-04 5.03476337145279348e-04
1.01900000000000000e+10 -3.68936573753395535e-04 -6.71616786916962786e-04 4.61367274821977258e-01 -1.83247124802393080e-01 4.61367274821977258e-01 -1.83247124802393080e-01 -4.96665472517084355e-04 7.12426443881275132e-05
1.02000000000000000e+10 -1.42957380894263202e-03 9.96167108563207772e-05 3.80333079651355821e-01 -3.15819597532291940e-01 3.80333079651355821e-01 -3.15819597532291940e-01 -4.36144219296345477e-04 1.41384294558054226e-03
1.02100000000000000e+10 1.18872414568393201e-04 -9.97534720249934788e-04 2.64274813329263114e-01 -4.16884553588386053e-01 2.64274813329263114e-01 -4.16884553588386053e-01 1.30634185844560657e-04 1.88479379837251925e-04
1.02200000000000000e+10 1.42978156268861741e-04 4.61150932717864330e-04 1.22080325198403283e-01 -4.78937920224109082e-01 1.22080325198403283e-01 -4.78937920224109082e-01 4.68979377707426110e-04 1.13311737919190715e-03
1.02300000000000000e+10 -6.56297988809114254e-04 -2.24780979084037802e-04 -3.26069779848700003e-02 -4.94004781104053048e-01 -3.26069779848700003e-02 -4.94004781104053048e-01 6.54776277003153630e-04 8.59897382159255830e-04
1.02400000000000000e+10 3.92674097184425317e-05 9.40213458049927677e-05 -1.84924998674288660e-01 -4.57793077714948871e-01 -1.84924998674288660e-01 -4.57793077714948871e-01 -3.20053319160501948e-04 2.45782849146947418e-04
1.02500000000000000e+10 3.85391242470586859e-04 -1.28170958765540065e-04 -3.14818879663175233e-01 -3.80428300256960394e-01 -3.14818879663175233e-01 -3.80428300256960394e-01 4.72828647774299322e-04 6.10521612415250800e-05
1.02600000000000000e+10 2.23324487877480147e-04 1.17285273020453122e-03 -4.17028101510312721e-01 -2.63863900133762763e-01 -4.17028101510312721e-01 -2.63863900133762763e-01 7.07014986465463410e-04 -3.72428906893655447e-04
1.02700000000000000e+10 8.03905961572103566e-04 -4.86636529059518343e-04 -4.79417200500562080e-01 -1.20907368813862867e-01 -4.79417200500562080e-01 -1.20907368813862867e-01 -6.63956806516746885e-05 -7.46097803472098135e-04
1.02800000000000000e+10 -1.06517807744283552e-03 -9.68417136246094656e-04 -4.91763327396727012e-01 3.31151293755267209e-02 -4.91763327396727012e-01 3.31151293755267209e-02 -4.77781811198748946e-04 7.19423767711911363e-04
1.02900000000000000e+10 -7.19927137067327629e-04 -2.81098439554863723e-04 -4.56825438352667479e-01 1.83371472613451186e-01 -4.56825438352667479e-01 1.83371472613451186e-01 -7.67477427972426511e-04 6.46489299335962901e-04
1.03000000000000000e+10 -2.91357566208020637e-04 -3.44359765854836621e-05 -3.78789166596585014e-01 3.15908358614611084e-01 -3.78789166596585014e-01 3.15908358614611084e-01 -1.42170828127285119e-04 -3.86745897312666632e-04
1.03100000000000000e+10 7.83446960731890778e-04 8.34250691683718172e-05 -2.61961616004753095e-01 4.17505136700841162e-01 -2.61961616004753095e-01 4.17505136700841162e-01 -7.14419606540187750e-04 -4.98737172728320002e-04
1.03200000000000000e+10 5.42357152191495231e-04 7.32829098128736094e-04 -1.20534306959621099e-01 4.79339757938337774e-01 -1.20534306959621099e-01 4.79339757938337774e-01 -4.16191748776816159e-04 -1.03410915718759959e-03
1.03300000000000000e+10 3.93811299327437878e-04 -2.38510191835664397e-04 3.37208823079701500e-02 4.92133338889866101e-01 3.37208823079701500e-02 4.92133338889866101e-01 7.46921411967815438e-05 -1.04969955305791115e-04
1.03400000000000000e+10 -6.17888616370630022e-04 -1.00490259951058361e-05 1.83848826414855393e-01 4.57615826317819219e-01 1.83848826414855393e-01 4.57615826317819219e-01 -8.72373035605775887e-04 -1.24304181017525529e-03
1.03500000000000000e+10 5.07170579272474211e-04 -1.04148573040267032e-04 3.15831616098765200e-01 3.77866754575166275e-01 3.15831616098765200e-01 3.77866754575166275e-01 -9.05062112539509412e-05 1.92872668019738449e-04
1.03600000000000000e+10 4.58080466638371693e-04 -1.37661501101828316e-03 4.17058401386781741e-01 2.61080251578601596e-01 4.17058401386781741e-01 2.61080251578601596e-01 3.05193460720396177e-04 1.11558265262736098e-04
1.03700000000000000e+10 -5.30391115858861849e-04 6.09270775358033393e-04 4.77575368583681437e-01 1.18099602681778923e-01 4.77575368583681437e-01 1.18099602681778923e-01 6.19571178827486315e-04 -5.78013818334704738e-04
1.03800000000000000e+10 -1.32081365723522295e-03 1.81874844134644314e-03 4.90388223367171805e-01 -3.28068503158013905e-02 4.90388223367171805e-01 -3.28068503158013905e-02 3.70921224116209499e-05 -4.07460269625632590e-04
1.03900000000000000e+10 -1.51402035585343752e-04 9.30994243543868324e-04 4.56224343361542162e-01 -1.84487196158060029e-01 4.56224343361542162e-01 -1.84487196158060029e-01 7.71131286305490045e-04 9.18829411705267881e-04
1.04000000000000000e+10 3.03928627941164216e-05 -5.81225324482701009e-04 3.76729431512347390e-01 -3.16367733948442087e-01 3.76729431512347390e-01 -3.16367733948442087e-01 2.54200454638033274e-04 6.07816709708246554e-04
1.04100000000000000e+10 6.66675553499691538e-04 -4.70605954813482265e-04 2.60587263132190383e-01 -4.17779224344690725e-01 2.60587263132190383e-01 -4.17779224344690725e-01 1.02628848644054885e-03 -5.30250783870691027e-04
1.04200000000000000e+10 7.41525023430406093e-04 -3.46364227442940993e-04 1.17862655422101198e-01 -4.77209060791717987e-01 1.17862655422101198e-01 -4.77209060791717987e-01 1.61143497765439718e-04 2.34675800212625924e-04
1.04300000000000000e+10 6.56062986720891200e-04 2.62434357812976271e-04 -3.49001255211123726e-02 -4.90166009701604011e-01 -3.49001255211123726e-02 -4.90166009701604011e-01 -1.96684990836943924e-03 5.06794410892973373e-04
1.04400000000000000e+10 1.23734959382663587e-03 -9.08642480633015896e-04 -1.84437694039916639e-01 -4.53999592050406853e-01 -1.84437694039916639e-01 -4.53999592050406853e-01 1.84292192539107260e-04 9.47415335939388783e-04
1.04500000000000000e+10 2.08871681995946790e-04 1.66898616400170042e-04 -3.16852969476265844e-01 -3.75078072312259869e-01 -3.16852969476265844e-01 -3.75078072312259869e-01 -6.69238593683971489e-07 -1.18328091331774705e-03
1.04600000000000000e+10 -2.65559516858221325e-04 1.78472212493347240e-05 -4.17295169487503725e-01 -2.58863837964583732e-01 -4.17295169487503725e-01 -2.58863837964583732e-01 8.37700281270606909e-05 4.89137144266702049e-04
1.04700000000000000e+10 2.68076457186646735e-04 1.52136785220755152e-03 -4.75447632418329824e-01 -1.18207836933978350e-01 -4.75447632418329824e-01 -1.18207836933978350e-01 1.86260472753954170e-04 -5.72808839070784812e-04
1.04800000000000000e+10 -1.08382156008298599e-04 -1.89505011868209807e-04 -4.88576084451556758e-01 3.50827445215906308e-02 -4.88576084451556758e-01 3.50827445215906308e-02 7.44173024123370068e-04 4.22786889347258788e-04
1.04900000000000000e+10 6.86173564854049918e-04 -4.20575544768187664e-04 -4.53949224778282368e-01 1.85660091986003056e-01 -4.53949224778282368e-01 1.85660091986003056e-01 6.34872878857117536e-05 -8.25738944144254546e-04
1.05000000000000000e+10 -2.00871259183665044e-04 -5.06094466129585678e-04 -3.72617094870509646e-01 3.17412583496849809e-01 -3.72617094870509646e-01 3.17412583496849809e-01 6.97909237019212880e-04 9.90192245579192597e-04
1.05100000000000000e+10 8.63894144140674690e-04 3.00279790155614905e-04 -2.58515579173244858e-01 4.16536868064879495e-01 -2.58515579173244858e-01 4.16536868064879495e-01 2.65886494838033297e-04 -1.23887171049711302e-04
1.05200000000000000e+10 9.93201433654791743e-04 3.11466414762156846e-04 -1.17202757997101545e-01 4.75523702989982089e-01 -1.17202757997101545e-01 4.75523702989982089e-01 -6.12146333675084379e-05 -1.09388639675540297e-04
1.05300000000000000e+10 -1.34358699296796146e-03 2.93216057615311020e-04 3.86177761596845012e-02 4.88088260442194832e-01 3.86177761596845012e-02 4.88088260442194832e-01 1.74543748371058495e-04 9.17315045725793522e-04
1.05400000000000000e+10 -3.46940524003958343e-04 -3.31760329374195624e-04 1.86266228818636664e-01 4.52122963666586331e-01 1.86266228818636664e-01 4.52122963666586331e-01 -2.64914030253933736e-04 2.91897857411233484e-04
1.05500000000000000e+10 4.72591394551167957e-04 -4.18492523412846882e-04 3.16144479237440934e-01 3.73495135547071255e-01 3.16144479237440934e-01 3.73495135547071255e-01 8.23149613941447610e-04 -2.23489085920984358e-04
1.05600000000000000e+10 -4.45662834269984248e-04 3.21290306641640148e-04 4.16291536988954047e-01 2.56715304098096342e-01 4.16291536988954047e-01 2.56715304098096342e-01 -6.97369934862958080e-04 -3.46173117425407743e-04
1.05700000000000000e+10 1.34513956475151202e-04 5.69706286562224914e-04 4.74943057896875243e-01 1.14080303887893864e-01 4.74943057896875243e-01 1.14080303887893864e-01 -8.68149363141980162e-04 1.28204497420119757e-05
1.05800000000000000e+10 1.29056803458879750e-03 -1.66941414908807520e-04 4.87102980631375138e-01 -3.65559888752210044e-02 4.87102980631375138e-01 -3.65559888752210044e-02 1.24279656221868854e-05 -1.33125833521203390e-04
1.05900000000000000e+10 6.77483812445203119e-04 9.54209528686582927e-04 4.51003202029975403e-01 -1.85823868004393905e-01 4.51003202029975403e-01 -1.85823868004393905e-01 -7.46267218426136989e-04 -8.80565471134216095e-04
1.06000000000000000e+10 -4.46418759807802796e-04 9.67441463667561657e-05 3.72596407909412786e-01 -3.17096252569767423e-01 3.72596407909412786e-01 -3.17096252569767423e-01 -6.72098481514918529e-04 7.42886766875958029e-04
1.06100000000000000e+10 1.85265256276462135e-03 -1.70360845726746435e-04 2.55775087034131210e-01 -4.16775028096938061e-01 2.55775087034131210e-01 -4.16775028096938061e-01 2.90714519355445824e-04 7.32923347681984673e-04
1.06200000000000000e+10 3.63142113986822640e-04 8.80672771468898110e-05 1.13941492777755074e-01 -4.74082810988420145e-01 1.13941492777755074e-01 -4.74082810988420145e-01 4.54609644988608679e-06 -9.23540654206461502e-04
1.06300000000000000e+10 -3.97940660308221026e-04 1.35972376654557351e-03 -3.80246633048038699e-02 -4.86238098746807235e-01 -3.80246633048038699e-02 -4.86238098746807235e-01 -1.36741204277745501e-04 1.06305730717016892e-03
1.06400000000000000e+10 1.03427855191687312e-03 -5.85034728727639440e-04 -1.86335795501109125e-01 -4.51126656137983084e-01 -1.86335795501109125e-01 -4.51126656137983084e-01 4.72638010901044401e-05 -1.02334205374644263e-03
1.06500000000000000e+10 -8.24628956725584843e-05 1.09333712139979234e-03 -3.17131154342329746e-01 -3.70157145697466494e-01 -3.17131154342329746e-01 -3.70157145697466494e-01 -6.21564816287287344e-04 3.78625244260275581e-04
1.06600000000000000e+10 -1.22527245219733395e-04 -9.48117706674652880e-04 -4.14734196652737030e-01 -2.52929817158355719e-01 -4.14734196652737030e-01 -2.52929817158355719e-01 3.73816819342511603e-04 2.22209068782471323e-04
1.06700000000000000e+10 -4.06815632445801337e-04 -1.04887657568248976e-03 -4.74330646236846010e-01 -1.13468684121126248e-01 -4.74330646236846010e-01 -1.13468684121126248e-01 -1.87600457762901078e-04 -5.84298299016665942e-04
1.06800000000000000e+10 7.47716772375200522e-04 5.17016894067323781e-04 -4.84751153444940963e-01 3.87877971924262197e-02 -4.84751153444940963e-01 3.87877971924262197e-02 -2.52606271865010159e-04 1.59250480856455625e-03
1.06900000000000000e+10 -4.06492458425070362e-04 -7.92775496933580885e-04 -4.49179001504268205e-01 1.87288177035903697e-01 -4.49179001504268205e-01 1.87288177035903697e-01 -5.15897547770975576e-04 3.12614691445182915e-04
1.07000000000000000e+10 -1.54787377699318633e-04 4.88688668345975169e-04 -3.68399327518334596e-01 3.17169693997523927e-01 -3.68399327518334596e-01 3.17169693997523927e-01 -4.27130012939333210e-04 6.63875445484478156e-06
1.07100000000000000e+10 1.00474642955653224e-04 6.33755397934435030e-04 -2.53354537088382348e-01 4.16186519559607060e-01 -2.53354537088382348e-01 4.16186519559607060e-01 6.56749010840582972e-04 -5.02725916046837542e-04
1.07200000000000000e+10 1.90599683910134453e-04 9.72848957856926378e-04 -1.13383491509062490e-01 4.73080270804598302e-01 -1.13383491509062490e-01 4.73080270804598302e-01 -7.17976155517881937e-04 -1.12521715676605692e-03
1.07300000000000000e+10 4.07617940749825029e-04 -3.14289184601550719e-04 3.94430585820436594e-02 4.83281125613941265e-01 3.94430585820436594e-02 4.83281125613941265e-01 -3.24959448103502265e-04 7.95127083719921477e-05
1.07400000000000000e+10 -9.31982876926964131e-04 -8.09592844963445929e-04 1.87574550904682086e-01 4.48912174755330295e-01 1.87574550904682086e-01 4.48912174755330295e-01 -3.07792013488526143e-04 -2.69513425180697507e-05
1.07500000000000000e+10 5.00316710563536503e-04 -2.56044381356709534e-04 3.17049997350566548e-01 3.68644306098548646e-01 3.17049997350566548e-01 3.68644306098548646e-01 -6.21755257168110360e-04 1.58475938880566066e-03
1.07600000000000000e+10 -8.72378401426221624e-04 -8.48486811350672378e-05 4.14718443415585947e-01 2.52740833713093194e-01 4.14718443415585947e-01 2.52740833713093194e-01 2.63523151907297170e-04 3.05026822170744913e-04
1.07700000000000000e+10 4.96113738951783510e-04 -6.89421999058169701e-04 4.71271810592512497e-01 1.11066242520602321e-01 4.71271810592512497e-01 1.11066242520602321e-01 9.60740520463685571e-04 -1.65461665433390978e-03
1.07800000000000000e+10 1.88752643552732736e-04 1.21030102365258618e-03 4.83527987078587351e-01 -4.10250326405342813e-02 4.83527987078587351e-01 -4.10250326405342813e-02 -1.36869027916903738e-03 7.95053746469492006e-04
1.07900000000000000e+10 -7.20011471199944516e-04 9.80778156192581947e-04 4.48256672190327166e-01 -1.87874118547203706e-01 4.48256672190327166e-01 -1.87874118547203706e-01 4.77543427195920353e-05 7.34441568989643444e-04
1.08000000000000000e+10 6.88880309295121339e-05 5.67197209776461255e-04 3.67043071802573728e-01 -3.16029877552734262e-01 3.67043071802573728e-01 -3.16029877552734262e-01 -3.46310013907279851e-04 -1.04848245949416222e-03
1.08100000000000000e+10 -2.32316203790353153e-04 -4.34347486577871169e-04 2.51781090235342453e-01 -4.15545999916827724e-01 2.51781090235342453e-01 -4.15545999916827724e-01 6.01518620459353054e-04 -7.36443505724630423e-05
1.08200000000000000e+10 4.47798830680267367e-04 1.72996426716533333e-04 1.10320739813103960e-01 -4.72380398450880479e-01 1.10320739813103960e-01 -4.72380398450880479e-01 2.84187311674302613e-04 4.58593300104844328e-04
1.08300000000000000e+10 1.09662994415672004e-03 -2.36432823633370127e-04 -4.03116866089043777e-02 -4.83466870841100960e-01 -4.03116866089043777e-02 -4.83466870841100960e-01 9.62082104591742231e-04 7.94925524747921801e-04
1.08400000000000000e+10 -9.59469762823456323e-04 -6.37153999903524565e-04 -1.89598681641528377e-01 -4.45557470429512104e-01 -1.89598681641528377e-01 -4.45557470429512104e-01 5.79848305375197238e-04 -1.55312941630375947e-05
1.08500000000000000e+10 -8.32901656549911321e-05 -8.25386573967996939e-04 -3.19498963893904253e-01 -3.65993920014700991e-01 -3.19498963893904253e-01 -3.65993920014700991e-01 5.52549092784396646e-04 -1.05571877353162068e-03
1.08600000000000000e+10 7.98609652484827274e-04 4.73383712723894243e-04 -4.14310270022967719e-01 -2.48611464267473437e-01 -4.14310270022967719e-01 -2.48611464267473437e-01 1.19913447393206523e-04 -7.32050233867325068e-05
1.08700000000000000e+10 -1.05576744502642195e-03 1.57175081410962050e-04 -4.70640828210640683e-01 -1.10123325206294004e-01 -4.70640828210640683e-01 -1.10123325206294004e-01 1.80256445411625305e-03 1.53149580673507296e-03
1.08800000000000000e+10 1.85310833402465300e-03 1.23605018365242100e-04 -4.81972406093865213e-01 4.20714720991732447e-02 -4.81972406093865213e-01 4.20714720991732447e-02 1.30385161757801685e-04 -4.36539643450973929e-04
1.08900000000000000e+10 5.79144386161781666e-04 4.26381805803625305e-04 -4.46142881122922386e-01 1.88187169661017589e-01 -4.46142881122922386e-01 1.88187169661017589e-01 -3.57863455911308474e-04 -5.54073609884468752e-04
1.09000000000000000e+10 5.23044867193224743e-04 -5.98118832320853862e-04 -3.64807925806455491e-01 3.17709993406446289e-01 -3.64807925806455491e-01 3.17709993406446289e-01 -3.51678434594732668e-04 5.91834234864852026e-04
1.09100000000000000e+10 -3.89865689097224617e-05 -7.42713439992401226e-04 -2.49805191625903394e-01 4.13885517425578220e-01 -2.49805191625903394e-01 4.13885517425578220e-01 -2.50129951434337704e-04 5.92194922908660941e-04
1.09200000000000000e+10 8.22921307483318000e-04 5.49544115174285374e-04 -1.08994108660451366e-01 4.69854656664516424e-01 -1.08994108660451366e-01 4.69854656664516424e-01 -4.89102647726740781e-04 4.00092264689802632e-04
1.09300000000000000e+10 -2.76273450094828706e-04 -9.71427014200335970e-04 4.15576959129598314e-02 4.83027918873892459e-01 4.15576959129598314e-02 4.83027918873892459e-01 5.00374801099458624e-04 -2.11785233325305019e-04
1.09400000000000000e+10 -1.06620860698655100e-03 1.60922055370623480e-04 1.88436179611548071e-01 4.45409756451202066e-01 1.88436179611548071e-01 4.45409756451202066e-01 2.01858806022366951e-04 -8.63763339759609475e-04
1.09500000000000000e+10 -1.39778128650639138e-03 -3.29878949574155338e-04 3.18240438290821992e-01 3.63570368227578100e-01 3.18240438290821992e-01 3.63570368227578100e-01 9.69438261293179785e-04 2.60945211190589217e-04
1.09600000000000000e+10 5.93327830990776834e-05 -1.03829692525172937e-03 4.14928887354792331e-01 2.47961472110114739e-01 4.14928887354792331e-01 2.47961472110114739e-01 2.43075548815838599e-04 4.48623202153803995e-04
1.09700000000000000e+10 4.82671606451709977e-04 -6.42150133965723358e-04 4.71090754107040766e-01 1.08336278406199055e-01 4.71090754107040766e-01 1.08336278406199055e-01 1.61218172789355388e-03 -2.44453571720548506e-04
1.09800000000000000e+10 2.18155768861761192e-04 -4.04301892508622323e-04 4.82050577494761601e-01 -4.29284314102357442e-02 4.82050577494761601e-01 -4.29284314102357442e-02 8.49378923225038653e-04 -4.76030004483276171e-04
1.09900000000000000e+10 1.20653055588556819e-03 -1.65408429702971647e-03 4.43373400757415659e-01 -1.88739178446183264e-01 4.43373400757415659e-01 -1.88739178446183264e-01 3.41952599806780004e-04 -1.25415357912026518e-04
1.10000000000000000e+10 1.66673809034463744e-03 -1.20761709547703163e-04 3.62435735466799969e-01 -3.17450291508370452e-01 3.62435735466799969e-01 -3.17450291508370452e-01 -7.89313741808723101e-04 -4.56013053804588727e-04
1.10100000000000000e+10 1.70390437060133804e-03 5.34484036276596203e-04 2.45417037895594131e-01 -4.13130349188551460e-01 2.45417037895594131e-01 -4.13130349188551460e-01 7.43097951164468982e-04 -6.94795258133076984e-04
1.10200000000000000e+10 -4.32982731901475077e-04 3.13892758570823638e-04 1.06596905868282452e-01 -4.69175245115094008e-01 1.06596905868282452e-01 -4.69175245115094008e-01 -1.24603651527144927e-03 -6.05264585736285210e-04
1.10300000000000000e+10 -1.05999965981643375e-04 6.78727480085840069e-04 -4.47466618151271395e-02 -4.79978097272128035e-01 -4.47466618151271395e-02 -4.79978097272128035e-01 -1.96923419683291800e-05 9.51457988136920440e-04
1.10400000000000000e+10 3.38040454132448615e-04 -1.09007325914899217e-04 -1.90917796372138598e-01 -4.42479157907290088e-01 -1.90917796372138598e-01 -4.42479157907290088e-01 7.18696684702956664e-04 -2.70151645590604897e-04
1.10500000000000000e+10 6.73323341132969614e-04 -9.58938309446575351e-05 -3.18786731667366707e-01 -3.61924780940741986e-01 -3.18786731667366707e-01 -3.61924780940741986e-01 -3.41303605156197338e-04 -9.40082857590915019e-04
1.10600000000000000e+10 -5.42432830390155319e-04 1.46344350443495239e-03 -4.10913010039770432e-01 -2.45664526012694562e-01 -4.10913010039770432e-01 -2.45664526012694562e-01 2.28352446760888692e-05 -1.34287955037145230e-04
1.10700000000000000e+10 -9.91351157307988158e-04 -1.02600734255089781e-03 -4.68910476515366603e-01 -1.06742821205499036e-01 -4.68910476515366603e-01 -1.06742821205499036e-01 -9.22897185890781497e-04 -4.78967896835715565e-04
1.10800000000000000e+10 -5.30094813631932604e-04 7.70007506487058418e-04 -4.77642168309516779e-01 4.40206870765615585e-02 -4.77642168309516779e-01 4.40206870765615585e-02 1.13771289433512251e-05 5.31785800835106893e-04
1.10900000000000000e+10 9.86902750693222243e-05 -3.85979473099240568e-05 -4.40405649784494369e-01 1.91689772692540589e-01 -4.40405649784494369e-01 1.91689772692540589e-01 1.44996482818810185e-03 5.10748563978994144e-04
1.11000000000000000e+10 2.63206365192561454e-04 -3.80996266379381480e-04 -3.61362918478098483e-01 3.17383491815962981e-01 -3.61362918478098483e-01 3.17383491815962981e-01 -2.23290679829219237e-05 -1.29501385955103801e-03
1.11100000000000000e+10 2.46778442729774080e-04 6.63716445747845711e-04 -2.44745220436033278e-01 4.13042090800167738e-01 -2.44745220436033278e-01 4.13042090800167738e-01 5.03575784535556991e-04 -1.09683606624212692e-03
1.11200000000000000e+10 -5.09273271287551317e-04 -1.43451070896229431e-04 -1.03455510104934714e-01 4.67266669116238986e-01 -1.03455510104934714e-01 4.67266669116238986e-01 3.88603294224842738e-04 -3.15690875077650297e-04
1.11300000000000000e+10 -1.14772568113025294e-03 1.19415035981957656e-04 4.52540264096017650e-02 4.77952465103739232e-01 4.52540264096017650e-02 4.77952465103739232e-01 5.51786153757611426e-04 -5.31020431239630046e-04
1.11400000000000000e+10 3.38046359765361106e-04 2.71649787355035446e-04 1.91877893834651814e-01 4.40584578415243733e-01 1.91877893834651814e-01 4.40584578415243733e-01 -7.21652383018028354e-04 -8.47970706703342846e-05
1.11500000000000000e+10 -1.10473480817142714e-03 1.04648978522722835e-03 3.18073367143328012e-01 3.59912270768163789e-01 3.18073367143328012e-01 3.59912270768163789e-01 -2.87575997042107334e-04 2.43918437387328373e-04
1.11600000000000000e+10 -2.45738138573784132e-04 6.26715679556931688e-04 4.13563866486204135e-01 2.45597780123398168e-01 4.13563866486204135e-01 2.45597780123398168e-01 -6.87142546634909174e-04 9.63211190770643807e-04
1.11700000000000000e+10 -9.55215525242749286e-04 -1.23363239219756286e-04 4.67059581143993652e-01 1.02758229553610247e-01 4.67059581143993652e-01 1.02758229553610247e-01 5.30254785219257856e-04 8.69989293530241503e-04
1.11800000000000000e+10 -9.70800831773929371e-05 -1.56873983499835094e-04 4.76379208024623191e-01 -4.51432780457666077e-02 4.76379208024623191e-01 -4.51432780457666077e-02 -1.49745873941751237e-03 -1.47762489172629640e-03
1.11900000000000000e+10 5.07605267704312768e-04 -2.49677935181861334e-05 4.38401975231763108e-01 -1.91650142179715849e-01 4.38401975231763108e-01 -1.91650142179715849e-01 4.81664147166117158e-04 -7.13159976297126795e-04
1.12000000000000000e+10 -2.99215365925349511e-04 1.30267940538617228e-03 3.58614411479068584e-01 -3.17888675446675983e-01 3.58614411479068584e-01 -3.17888675446675983e-01 -5.10393677325244872e-04 5.19665252932751125e-04
1.12100000000000000e+10 2.50445727083958218e-04 1.74350906317825703e-04 2.41019439309535038e-01 -4.12691778567973511e-01 2.41019439309535038e-01 -4.12691778567973511e-01 -5.58851661649041836e-04 -1.72567433966777108e-04
1.12200000000000000e+10 3.87737640873525504e-04 -4.37060604192627265e-04 1.04046658742496023e-01 -4.68159374775082071e-01 1.04046658742496023e-01 -4.68159374775082071e-01 3.49311941768351607e-04 -7.10597547263063737e-04
1.12300000000000000e+10 -4.98884868587447412e-04 5.99046452397416075e-04 -4.70700673380338441e-02 -4.75131393169795302e-01 -4.70700673380338441e-02 -4.75131393169795302e-01 7.13980273383998373e-05 -1.97352462582026805e-04
1.12400000000000000e+10 -8.66538051952287880e-04 -3.07237880480544403e-04 -1.90768849248592748e-01 -4.38336370139554954e-01 -1.90768849248592748e-01 -4.38336370139554954e-01 1.46541625343488005e-03 -9.15844707900936460e-05
1.12500000000000000e+10 -3.68374857133576985e-04 -6.06165076149675400e-05 -3.19170686722719588e-01 -3.57115565350904884e-01 -3.19170686722719588e-01 -3.57115565350904884e-01 -5.65900725859250675e-04 6.60685105043510613e-04
1.12600000000000000e+10 -1.42617632105207498e-04 1.41398124617917354e-03 -4.12780557171129214e-01 -2.42241410337298735e-01 -4.12780557171129214e-01 -2.42241410337298735e-01 8.98097199993472782e-04 3.60196020054817851e-04
1.12700000000000000e+10 7.36096534399474319e-04 1.16085092211174433e-03 -4.67286897538854551e-01 -1.02259878620822989e-01 -4.67286897538854551e-01 -1.02259878620822989e-01 8.70108995425089332e-04 -1.34589700833074124e-03
1.12800000000000000e+10 1.22235243534711308e-03 -3.90943873637064913e-04 -4.76422498632339042e-01 4.65169457095496869e-02 -4.76422498632339042e-01 4.65169457095496869e-02 -1.67281013518462987e-04 -7.94970180846107553e-05
1.12900000000000000e+10 9.51672013737882961e-05 -7.22894566161349215e-04 -4.36096266567554181e-01 1.91316364974947833e-01 -4.36096266567554181e-01 1.91316364974947833e-01 -1.12276207491242112e-03 -2.05477944645856978e-04
1.13000000000000000e+10 -2.27957461054163231e-04 -5.29471161066229581e-04 -3.56716746511224148e-01 3.17163687159555452e-01 -3.56716746511224148e-01 3.17163687159555452e-01 -6.31781703028482205e-04 8.88702198966945462e-04
1.13100000000000000e+10 -1.42696022470713052e-04 -5.09309499188222549e-04 -2.39875344300940291e-01 4.11709895452052388e-01 -2.39875344300940291e-01 4.11709895452052388e-01 4.61047096312073679e-04 -1.08554402740693168e-03
1.13200000000000000e+10 9.66705576646587571e-04 -1.07223157590324403e-03 -1.01484816006179271e-01 4.65638536935642389e-01 -1.01484816006179271e-01 4.65638536935642389e-01 1.08951342174535391e-04 -2.96532583964415845e-04
1.13300000000000000e+10 3.85294050457678076e-04 -2.14356530011499958e-04 4.90531785551039656e-02 4.74188531150465276e-01 4.90531785551039656e-02 4.74188531150465276e-01 -6.48514342781942904e-04 -1.39273426025208580e-04
1.13400000000000000e+10 1.68128897478349837e-05 -2.28411663004990338e-05 1.91612536202336009e-01 4.35992663588484597e-01 1.91612536202336009e-01 4.35992663588484597e-01 2.85111106212300404e-04 6.87071645460480673e-04
1.13500000000000000e+10 -1.11567139036504079e-03 -2.21197620834421595e-04 3.16830812846563670e-01 3.54735220829795306e-01 3.16830812846563670e-01 3.54735220829795306e-01 2.09484720415363319e-05 1.01872627446829853e-03
1.13600000000000000e+10 -8.00398299527875176e-04 -3.31665855202130768e-04 4.12051679630921708e-01 2.38908125034060448e-01 4.12051679630921708e-01 2.38908125034060448e-01 -6.03645954675394929e-04 -3.39510799426402362e-04
1.13700000000000000e+10 -1.66578425701587474e-03 9.13105282425993067e-04 4.64999594583906495e-01 9.92824088845197378e-02 4.64999594583906495e-01 9.92824088845197378e-02 7.73940034217521482e-04 1.12511692954355889e-03
1.13800000000000000e+10 2.82759445119623446e-04 5.85723258539324839e-04 4.73937762062239754e-01 -5.03468141081040155e-02 4.73937762062239754e-01 -5.03468141081040155e-02 -1.98899530023526972e-03 8.45472941256578537e-04
1.13900000000000000e+10 -3.76085906984260498e-04 2.32207424896380539e-04 4.35539683708249969e-01 -1.93436999162708845e-01 4.35539683708249969e-01 -1.93436999162708845e-01 -1.89812805805151017e-04 -2.68626233558765209e-04
1.14000000000000000e+10 5.82045831108455279e-04 -3.22585151512352105e-04 3.54411108822336895e-01 -3.17752316544717250e-01 3.54411108822336895e-01 -3.17752316544717250e-01 -3.97953553461853811e-04 2.06997323089621921e-04
1.14100000000000000e+10 6.91870390106961086e-04 6.21134042137544721e-04 2.39407956387229115e-01 -4.11503897549966469e-01 2.39407956387229115e-01 -4.11503897549966469e-01 5.48243638509032772e-04 -1.05859956826959167e-03
1.14200000000000000e+10 4.67239258760092770e-04 -4.02363424455056467e-06 9.84500461682956685e-02 -4.65364397998993595e-01 9.84500461682956685e-02 -4.65364397998993595e-01 1.12681311930207427e-04 -7.53844311911254706e-05
1.14300000000000000e+10 1.97829910744584355e-04 -1.65607895673013826e-04 -5.00640509876254941e-02 -4.72253072436018106e-01 -5.00640509876254941e-02 -4.72253072436018106e-01 -2.38921230716739318e-04 -2.22735648888483257e-04
1.14400000000000000e+10 -4.68829213549850580e-04 -5.02673439058856685e-04 -1.92222733216652703e-01 -4.33696181604275754e-01 -1.92222733216652703e-01 -4.33696181604275754e-01 -7.25840358078413983e-04 -4.52939844927745900e-04
1.14500000000000000e+10 1.49279308064939381e-04 -1.60735428011542702e-03 -3.17833491571836046e-01 -3.53317560753585336e-01 -3.17833491571836046e-01 -3.53317560753585336e-01 3.81305012910430723e-04 2.44520567049581956e-04
1.14600000000000000e+10 -3.63903971489709657e-05 1.64730843263130930e-04 -4.11904753779879007e-01 -2.36329245017334877e-01 -4.11904753779879007e-01 -2.36329245017334877e-01 1.74348291386517486e-04 1.13321073012023245e-03
1.14700000000000000e+10 1.38710890759936520e-03 5.23445949138465509e-04 -4.64015047713320361e-01 -9.88599378613402718e-02 -4.64015047713320361e-01 -9.88599378613402718e-02 7.44761966452631933e-04 -8.24585756932662024e-04
1.14800000000000000e+10 -1.14336828855086882e-03 -3.63120888035460413e-04 -4.70576088242419144e-01 4.91938234527197135e-02 -4.70576088242419144e-01 4.91938234527197135e-02 8.58836752258515220e-04 -1.09464365108239911e-03
1.14900000000000000e+10 -7.85282455794254384e-05 8.99183404937755378e-05 -4.32603196765855458e-01 1.93481052335414461e-01 -4.32603196765855458e-01 1.93481052335414461e-01 1.23410323763747682e-03 -7.21390338873825190e-04
1.15000000000000000e+10 -4.32057201102355851e-05 -9.37731497298809253e-04 -3.52689333710944242e-01 3.17260389766075235e-01 -3.52689333710944242e-01 3.17260389766075235e-01 5.87426396039553633e-04 8.16758653882832864e-04
1.15100000000000000e+10 -1.71220670828241186e-04 -7.52885274202361458e-04 -2.35888307899728450e-01 4.10499456512245453e-01 -2.35888307899728450e-01 4.10499456512245453e-01 -2.28806105144231312e-04 1.29546063163007345e-04
1.15200000000000000e+10 -1.09380017663464292e-03 -8.78121817788150394e-04 -9.78491695413821749e-02 4.63538526355223690e-01 -9.78491695413821749e-02 4.63538526355223690e-01 3.78046356998591488e-04 -3.66926749862461245e-04
1.15300000000000000e+10 -7.95276183702587573e-04 -8.31018962162732616e-04 5.18734057282579375e-02 4.71005501829530382e-01 5.18734057282579375e-02 4.71005501829530382e-01 -1.44948766191683293e-03 4.39607208130275717e-05
1.15400000000000000e+10 -6.36434359121320530e-04 2.60544452165087962e-05 1.94045800442531835e-01 4.31411629189927481e-01 1.94045800442531835e-01 4.31411629189927481e-01 1.32231090833221060e-04 -6.60013905940269184e-04
1.15500000000000000e+10 5.66462907842178926e-04 1.79747137285875388e-04 3.18023685492644981e-01 3.50977656808259209e-01 3.18023685492644981e-01 3.50977656808259209e-01 1.15359030415299458e-03 1.16454711289162667e-04
1.15600000000000000e+10 -3.41548625745238452e-04 1.99431407041546568e-04 4.11135509535215771e-01 2.34813275682072914e-01 4.11135509535215771e-01 2.34813275682072914e-01 -4.73453704908246447e-04 -5.35746760450364059e-04
1.15700000000000000e+10 8.25929488680772809e-04 1.01540034734915174e-04 4.63036653483556937e-01 9.66864055241204307e-02 4.63036653483556937e-01 9.66864055241204307e-02 -2.14497584241443246e-04 2.07032516907404310e-04
1.15800000000000000e+10 -4.57026103372211559e-06 1.65987128811242979e-03 4.69551741122604394e-01 -5.18975358092357703e-02 4.69551741122604394e-01 -5.18975358092357703e-02 -2.67226111094938878e-04 -1.58343310476444574e-04
1.15900000000000000e+10 -1.13638788430111279e-03 -4.69767826780821923e-04 4.30895032037785342e-01 -1.93465491363831982e-01 4.30895032037785342e-01 -1.93465491363831982e-01 -5.02973802644896928e-05 -1.01686397005610463e-04
1.16000000000000000e+10 4.59858343433234597e-04 4.63726033580767587e-04 3.49476121644814952e-01 -3.17874006537605003e-01 3.49476121644814952e-01 -3.17874006537605003e-01 -9.17733046114147660e-04 -1.53954862144954207e-04
1.16100000000000000e+10 -3.05723928042216900e-05 9.50535582756061146e-04 2.33769413961703504e-01 -4.09862760984718855e-01 2.33769413961703504e-01 -4.09862760984718855e-01 -6.53380083702769063e-04 -5.10146035474517371e-04
1.16200000000000000e+10 1.23187105751542715e-03 3.15584077172992165e-04 9.55568100964534900e-02 -4.61598914787516357e-01 9.55568100964534900e-02 -4.61598914787516357e-01 2.05637069398235516e-03 -1.02449074232441621e-03
1.16300000000000000e+10 -2.56435493223665313e-04 7.42127326254075925e-04 -5.27943974151419207e-02 -4.69087769413417344e-01 -5.27943974151419207e-02 -4.69087769413417344e-01 -1.75513820367346156e-04 -6.30877554538419373e-04
1.16400000000000000e+10 -5.86158398344577953e-04 -8.05481009421181102e-04 -1.94075268638925158e-01 -4.30484462242390620e-01 -1.94075268638925158e-01 -4.30484462242390620e-01 -3.58922019960353483e-04 3.56186393157433199e-05
1.16500000000000000e+10 2.47811591520173083e-05 -5.63750491106889870e-04 -3.17433205204087965e-01 -3.48271402307407330e-01 -3.17433205204087965e-01 -3.48271402307407330e-01 -6.35796088862290433e-05 2.99221287510977171e-04
1.16600000000000000e+10 1.49280711051731174e-04 -2.62230628467242238e-04 -4.10558123149042220e-01 -2.33019560591056857e-01 -4.10558123149042220e-01 -2.33019560591056857e-01 6.75263397805480779e-04 -4.89126314672270654e-04
1.16700000000000000e+10 1.20657704466068023e-03 -2.36239207927560707e-04 -4.62146088001241684e-01 -9.39416869442844249e-02 -4.62146088001241684e-01 -9.39416869442844249e-02 -6.75250069363656055e-04 1.27940161080692880e-03
1.16800000000000000e+10 1.05618182919373961e-04 -2.80920198375823513e-04 -4.67290212789602144e-01 5.33477529186740587e-02 -4.67290212789602144e-01 5.33477529186740587e-02 -1.19244736772668603e-04 2.76176978746874447e-04
1.16900000000000000e+10 1.06166529062582705e-03 5.72333427847137124e-04 -4.29719744507589207e-01 1.96091000172178842e-01 -4.29719744507589207e-01 1.96091000172178842e-01 -9.67162711946687186e-05 8.52880111974770689e-05
1.17000000000000000e+10 7.59687108865663547e-04 6.00409085605771269e-04 -3.47437891097475970e-01 3.18156506554701957e-01 -3.47437891097475970e-01 3.18156506554701957e-01 -2.88876771232798792e-04 -2.68496866012108771e-04
1.17100000000000000e+10 1.26766147671528292e-03 -4.33766635483710718e-04 -2.32153652615182837e-01 4.09892131493730660e-01 -2.32153652615182837e-01 4.09892131493730660e-01 1.16046129163926035e-04 -3.67870509545606677e-04
1.17200000000000000e+10 -1.49949843171942962e-04 6.58186733441648618e-04 -9.45333494353503140e-02 4.61008498535124545e-01 -9.45333494353503140e-02 4.61008498535124545e-01 1.60481585362137502e-04 4.18146618901671168e-04
1.17300000000000000e+10 9.37584819963419632e-04 -6.47431484103560585e-04 5.32978715835809511e-02 4.67747020058369101e-01 5.32978715835809511e-02 4.67747020058369101e-01 9.07980054964176945e-04 7.15317084995361154e-04
1.17400000000000000e+10 -5.84674197685827865e-04 2.06465500499705912e-04 1.95527430648116479e-01 4.28033341447994764e-01 1.95527430648116479e-01 4.28033341447994764e-01 4.91347728052249073e-04 -6.51960818148266324e-05
1.17500000000000000e+10 3.89132480918226128e-04 9.45102358098865927e-05 3.18000516587471360e-01 3.46596892725137662e-01 3.18000516587471360e-01 3.46596892725137662e-01 -1.34480174160045039e-03 3.94217473753523916e-04
1.17600000000000000e+10 -8.23418635581376127e-05 8.02582958354756157e-04 4.10246490291162336e-01 2.31276838406560187e-01 4.10246490291162336e-01 2.31276838406560187e-01 4.73601325883018359e-04 2.79264623151160055e-04
1.17700000000000000e+10 -5.27075402236469804e-05 8.64722784470008977e-04 4.61838918731556969e-01 9.24674340756517499e-02 4.61838918731556969e-01 9.24674340756517499e-02 -7.36195803412209842e-04 6.81789185241436350e-06
1.17800000000000000e+10 3.20917045046372330e-04 -2.30852799696369920e-04 4.68096734461769526e-01 -5.58515438175038459e-02 4.68096734461769526e-01 -5.58515438175038459e-02 1.14333504743952550e-03 -2.18225063209593950e-04
1.17900000000000000e+10 1.42263921757210666e-03 5.83185271634307123e-04 4.26303253280996275e-01 -1.96470167354311137e-01 4.26303253280996275e-01 -1.96470167354311137e-01 -2.63264295918080545e-04 -1.16828242088644254e-03
1.18000000000000000e+10 1.35782521307997077e-04 -6.80316167160484385e-04 3.46160377649061823e-01 -3.17314710827178992e-01 3.46160377649061823e-01 -3.17314710827178992e-01 -8.21081498750767988e-04 8.45158973367160610e-06
1.18100000000000000e+10 2.32608051237867471e-04 8.19443839318182874e-04 2.29564884793454965e-01 -4.08634700057934952e-01 2.29564884793454965e-01 -4.08634700057934952e-01 -5.20256555877307469e-05 5.91047743954846222e-04
1.18200000000000000e+10 -1.11875075848350816e-03 1.62417342754825838e-04 9.26818996263597122e-02 -4.61091771854099386e-01 9.26818996263597122e-02 -4.61091771854099386e-01 -1.33876792188949664e-03 3.48300606714368533e-04
1.18300000000000000e+10 2.99129643443152738e-04 -3.77774609979344967e-04 -5.55296307171779663e-02 -4.65738985008961659e-01 -5.55296307171779663e-02 -4.65738985008961659e-01 -5.50152470994261971e-04 -1.57372393048889250e-04
1.18400000000000000e+10 4.40865686224013785e-04 -2.23227743054733760e-04 -1.95849295545499097e-01 -4.25631551126533225e-01 -1.95849295545499097e-01 -4.25631551126533225e-01 -8.71705764671766191e-04 6.31900307345528820e-04
1.18500000000000000e+10 -1.68942170584877719e-03 -6.62129682623459212e-05 -3.18041542890454221e-01 -3.45372840376411139e-01 -3.18041542890454221e-01 -3.45372840376411139e-01 1.57886773829255922e-04 4.05496736885215968e-04
1.18600000000000000e+10 -1.06171699302682427e-03 -3.02499765554377071e-04 -4.07742755511089960e-01 -2.28486745028807031e-01 -4.07742755511089960e-01 -2.28486745028807031e-01 6.30241489221728584e-04 -5.59850641233914465e-04
1.18700000000000000e+10 -1.04609075040862864e-03 -5.95115045879662601e-04 -4.59050830780128261e-01 -9.18668242337966345e-02 -4.59050830780128261e-01 -9.18668242337966345e-02 -9.54524930919412409e-04 -2.10472334563955628e-04
1.18800000000000000e+10 1.11933149414320367e-03 -8.88243595424172572e-04 -4.64048568964185060e-01 5.37078248674672798e-02 -4.64048568964185060e-01 5.37078248674672798e-02 1.26684062224172991e-03 -1.36504287543471247e-03
1.18900000000000000e+10 -8.88618107478117208e-04 -2.47338989943844993e-04 -4.25437822868762472e-01 1.96271010153781400e-01 -4.25437822868762472e-01 1.96271010153781400e-01 -9.03009202756704303e-04 1.56562171423876948e-04
1.19000000000000000e+10 -6.82756023479473323e-04 1.41230576043977212e-03 -3.42005547991287517e-01 3.18363418828144507e-01 -3.42005547991287517e-01 3.18363418828144507e-01 1.06641633665307764e-04 1.40236143884103407e-04
1.19100000000000000e+10 -1.63154850932958065e-04 -1.15240447076132260e-03 -2.28248175230187811e-01 4.08870302262036800e-01 -2.28248175230187811e-01 4.08870302262036800e-01 -5.87508352191115722e-04 -1.07542278898308994e-03
1.19200000000000000e+10 -3.82308754586120842e-04 5.07253901505727751e-04 -9.01009247919542650e-02 4.59299757987610913e-01 -9.01009247919542650e-02 4.59299757987610913e-01 -2.09287628418898601e-04 1.94016549128864403e-04
1.19300000000000000e+10 -2.64751146902344916e-04 -1.46534338396328649e-04 5.58240556777234442e-02 4.63984586351398498e-01 5.58240556777234442e-02 4.63984586351398498e-01 7.87832281152113934e-05 -1.09451878342151364e-04
1.19400000000000000e+10 -1.14953222842231886e-04 8.42552190071186214e-04 1.96454678564491836e-01 4.24110181909617912e-01 1.96454678564491836e-01 4.24110181909617912e-01 -2.99759171258504801e-04 1.21325761607636020e-03
1.19500000000000000e+10 3.29707800272785369e-04 -1.15997710961577663e-04 3.18032208983337672e-01 3.42228480592013662e-01 3.18032208983337672e-01 3.42228480592013662e-01 -1.43503918645249373e-04 2.84253739589337084e-04
1.19600000000000000e+10 -4.74847919526850308e-04 8.79338073682058518e-04 4.08395421090832378e-01 2.26408544723352229e-01 4.08395421090832378e-01 2.26408544723352229e-01 3.78995548673701768e-04 5.99733721729433567e-04
1.19700000000000000e+10 -1.28612722708082569e-03 5.92987028790689891e-04 4.58676047006617960e-01 8.90526197309208373e-02 4.58676047006617960e-01 8.90526197309208373e-02 4.56861233437474024e-04 -4.05465970459992133e-04
1.19800000000000000e+10 2.19210581010516754e-05 4.64107077171672705e-04 4.63186638611863433e-01 -5.66877590024005770e-02 4.63186638611863433e-01 -5.66877590024005770e-02 6.83623280627200579e-04 4.26093153300218007e-04
1.19900000000000000e+10 6.96003656829222465e-04 -8.11473729565505449e-05 4.22614551482405676e-01 -1.96628286654743578e-01 4.22614551482405676e-01 -1.96628286654743578e-01 3.28436461751942872e-04 -2.12322918049183147e-04
1.20000000000000000e+10 1.66056622169299028e-04 3.40569412057835645e-04 3.39952469563642390e-01 -3.18686424337263630e-01 3.39952469563642390e-01 -3.18686424337263630e-01 2.40492112823083532e-04 -3.41692214135784890e-04
1.20100000000000000e+10 -9.94148434074924913e-04 -3.30205288889660160e-04 2.26156129245353665e-01 -4.08085849161833658e-01 2.26156129245353665e-01 -4.08085849161833658e-01 -1.05174417453087724e-03 -4.92627223360595791e-04
1.20200000000000000e+10 3.70623869999968435e-04 -2.54253383498130028e-04 9.04422982107253859e-02 -4.58680959917007192e-01 9.04422982107253859e-02 -4.58680959917007192e-01 -4.48372536253378829e-04 -6.21628726108003739e-04
1.20300000000000000e+10 -6.72320735428037601e-04 7.96868942505748578e-05 -5.83676345845792477e-02 -4.63360891421899346e-01 -5.83676345845792477e-02 -4.63360891421899346e-01 -7.33743393351458852e-04 -6.88191412308438474e-04
1.20400000000000000e+10 7.38113640995727836e-04 -5.91977205538920235e-04 -1.97478432533850806e-01 -4.21857611011334732e-01 -1.97478432533850806e-01 -4.21857611011334732e-01 -1.22685584725536895e-03 -3.10454545767919186e-04
1.20500000000000000e+10 -1.74811086753758613e-04 -1.14421118604695195e-03 -3.18618783355456181e-01 -3.40600316109737622e-01 -3.18618783355456181e-01 -3.40600316109737622e-01 4.26531981924943874e-04 7.52102245644261811e-04
1.20600000000000000e+10 -3.55201105021852627e-04 1.24994263744176667e-03 -4.07606778962397998e-01 -2.25404321888607123e-01 -4.07606778962397998e-01 -2.25404321888607123e-01 -7.71569683679447824e-05 1.02430432996116565e-05
1.20700000000000000e+10 -1.20611330677475401e-03 3.93682920689627140e-06 -4.58125887865938997e-01 -8.69233257991405134e-02 -4.58125887865938997e-01 -8.69233257991405134e-02 9.27369962959206776e-04 -6.07726241000616655e-04
1.20800000000000000e+10 2.52720050889648892e-04 2.16894361253685719e-05 -4.61867995007630705e-01 5.71816465262370358e-02 -4.61867995007630705e-01 5.71816465262370358e-02 -1.55307189137039230e-05 -7.70262946332717991e-04
1.20900000000000000e+10 -1.16383430377768474e-03 -1.26444853486703114e-03 -4.21512726088512757e-01 1.96592015426564681e-01 -4.21512726088512757e-01 1.96592015426564681e-01 3.03424586503692022e-04 -3.51643100548025426e-04
1.21000000000000000e+10 5.21708132469558177e-04 -2.33831507713795340e-04 -3.38605377149614972e-01 3.17106704902605729e-01 -3.38605377149614972e-01 3.17106704902605729e-01 2.77662768852970628e-04 4.46557386800555331e-04
1.21100000000000000e+10 4.25754618391668306e-04 2.49688611519215012e-04 -2.24550127341111516e-01 4.08414740940896581e-01 -2.24550127341111516e-01 4.08414740940896581e-01 1.01537096343900439e-03 -9.93641422940318831e-05
1.21200000000000000e+10 -6.75233043081441752e-04 -6.75816568447343432e-04 -8.68126132926863164e-02 4.56946048017952355e-01 -8.68126132926863164e-02 4.56946048017952355e-01 -1.68815425815392280e-04 -2.13204372703979130e-04
1.21300000000000000e+10 9.11408447027843506e-04 -2.91330132771735139e-04 5.84033129933572842e-02 4.61503815519165861e-01 5.84033129933572842e-02 4.61503815519165861e-01 5.41634789151680673e-04 8.15151889626574409e-04
1.21400000000000000e+10 -4.81081615246863774e-04 -6.81110732546274063e-05 1.99073688305501872e-01 4.19495189603810270e-01 1.99073688305501872e-01 4.19495189603810270e-01 7.05484158709711968e-04 2.02879159592689833e-04
1.21500000000000000e+10 1.13507484790470177e-03 5.48314956211094946e-04 3.18231823491848087e-01 3.39338676639823700e-01 3.18231823491848087e-01 3.39338676639823700e-01 6.76955565737340898e-04 -5.69500512906461137e-04
1.21600000000000000e+10 5.39305432746408058e-04 1.55473374437294396e-04 4.08171849064246139e-01 2.22116283970009765e-01 4.08171849064246139e-01 2.22116283970009765e-01 5.62267358216928101e-04 1.15448003246321857e-03
1.21700000000000000e+10 1.74736695255110606e-04 -1.10816085186178680e-03 4.57101950458146056e-01 8.54289962052459245e-02 4.57101950458146056e-01 8.54289962052459245e-02 -1.85728903531099830e-03 -2.36726058801499324e-04
1.21800000000000000e+10 -1.82334865555840522e-04 7.94264443438447458e-04 4.59824075135593979e-01 -6.00145444362345862e-02 4.59824075135593979e-01 -6.00145444362345862e-02 8.64410760149070777e-04 -6.26910309718466097e-04
1.21900000000000000e+10 -8.17894198517459659e-05 1.54779742457361315e-04 4.19974510600712947e-01 -1.98774509920023934e-01 4.19974510600712947e-01 -1.98774509920023934e-01 1.56942474083347858e-04 -1.47138494532321365e-03
1.22000000000000000e+10 8.29917387004104981e-04 6.90226760351037830e-04 3.37949545098081394e-01 -3.17244942424173171e-01 3.37949545098081394e-01 -3.17244942424173171e-01 5.94395254952441324e-05 1.13548220081558394e-03
1.22100000000000000e+10 4.18476352778916197e-04 3.20466317881142135e-04 2.22265994855090382e-01 -4.05886252669224290e-01 2.22265994855090382e-01 -4.05886252669224290e-01 -2.57317273922922989e-04 -3.45994174822799596e-04
1.22200000000000000e+10 4.16205274541914054e-04 -4.52913434683252329e-04 8.65447828760043114e-02 -4.54329232642046610e-01 8.65447828760043114e-02 -4.54329232642046610e-01 6.72960023915009629e-04 5.17984999939650808e-04
1.22300000000000000e+10 -4.98128885628408742e-04 5.91368431968848380e-04 -5.90646736578963882e-02 -4.58468215643397514e-01 -5.90646736578963882e-02 -4.58468215643397514e-01 -5.09846942801544948e-04 3.28527519961901139e-05
1.22400000000000000e+10 -2.06802371917361996e-03 -1.51303049022138839e-06 -1.99515163176486543e-01 -4.17560822164469381e-01 -1.99515163176486543e-01 -4.17560822164469381e-01 1.65912031973026352e-04 6.07319896536437365e-04
1.22500000000000000e+10 -9.79434624778548939e-04 3.88348624302955255e-04 -3.18285484743630831e-01 -3.35952711032971363e-01 -3.18285484743630831e-01 -3.35952711032971363e-01 8.74600229200585169e-04 -7.45562077169719360e-04
1.22600000000000000e+10 -1.00515391561304985e-05 3.01485272349796352e-04 -4.06386440430520302e-01 -2.21345939340261338e-01 -4.06386440430520302e-01 -2.21345939340261338e-01 -1.55726297926407089e-04 5.06413663275278279e-04
1.22700000000000000e+10 -1.63006302800007010e-03 1.50997944566044106e-04 -4.54867145706043530e-01 -8.49468389411617147e-02 -4.54867145706043530e-01 -8.49468389411617147e-02 -4.90108877163850727e-04 3.28645213156977524e-05
1.22800000000000000e+10 2.45302811026816699e-04 4.73350447902049257e-04 -4.60122748569229245e-01 6.02354636651553227e-02 -4.60122748569229245e-01 6.02354636651553227e-02 1.66281827180809040e-04 5.08636777444361845e-04
1.22900000000000000e+10 4.19938557010268493e-04 -1.51541401843109528e-03 -4.16455449272932487e-01 1.99754814817952875e-01 -4.16455449272932487e-01 1.99754814817952875e-01 2.01457594672035077e-04 5.31828010677961585e-04
1.23000000000000000e+10 -8.89378280568547258e-04 -1.11272094049028495e-04 -3.35214562338137456e-01 3.17433553853861850e-01 -3.35214562338137456e-01 3.17433553853861850e-01 -1.33244494246802041e-03 6.21002334030723059e-04
1.23100000000000000e+10 -1.29802243463238869e-03 -5.62723588656241806e-04 -2.20036349336568932e-01 4.07569595263695517e-01 -2.20036349336568932e-01 4.07569595263695517e-01 4.46154414619281221e-04 1.92386369132368606e-03
1.23200000000000000e+10 2.05391936210406019e-04 1.73238598895532353e-04 -8.28128899599458318e-02 4.54886400591648588e-01 -8.28128899599458318e-02 4.54886400591648588e-01 6.23235894939305150e-04 1.62277541840869026e-04
1.23300000000000000e+10 4.57667493020234536e-04 -6.23238939083955914e-04 5.98464094436358326e-02 4.58144111325405112e-01 5.98464094436358326e-02 4.58144111325405112e-01 -4.47605620207687678e-04 -8.91076968619772150e-04
1.23400000000000000e+10 1.68038651809400690e-04 -1.16420260382290273e-03 1.98587460365230062e-01 4.17354930937799518e-01 1.98587460365230062e-01 4.17354930937799518e-01 -8.19226243007922317e-04 7.06235970738122742e-04
1.23500000000000000e+10 -1.03826147622023313e-03 -8.41087892645506576e-04 3.18083475066770538e-01 3.33924569676731453e-01 3.18083475066770538e-01 3.33924569676731453e-01 1.66495622901540201e-04 -3.09087110203983570e-04
1.23600000000000000e+10 8.86178425809349530e-04 -1.07414129237284688e-03 4.06239085942694311e-01 2.19634119806876915e-01 4.06239085942694311e-01 2.19634119806876915e-01 -2.07140280790213074e-04 -1.81625906614042753e-03
1.23700000000000000e+10 -6.96807255079708357e-04 -8.97143320652087767e-04 4.54911064297311374e-01 8.32888484453459949e-02 4.54911064297311374e-01 8.32888484453459949e-02 2.22061456792565593e-04 -4.75924093613117332e-04
1.23800000000000000e+10 5.54695502565101853e-04 6.86000715034249019e-04 4.56479569348137770e-01 -6.21988251749381396e-02 4.56479569348137770e-01 -6.21988251749381396e-02 -8.44577854056121290e-04 -4.23680667507727866e-04
1.23900000000000000e+10 2.19341635902990515e-04 1.01252268135523815e-03 4.15702730184000002e-01 -2.00236671359644541e-01 4.15702730184000002e-01 -2.00236671359644541e-01 9.06400991977879310e-04 -3.15579996897397784e-05
1.24000000000000000e+10 -4.27484130662899448e-04 -1.79553268980709563e-03 3.33138117161745517e-01 -3.17845935387966683e-01 3.33138117161745517e-01 -3.17845935387966683e-01 -3.29921632670085105e-04 6.28409945651541143e-04
1.24100000000000000e+10 7.76326962947575445e-04 5.96831550541272759e-04 2.17800384983031781e-01 -4.05753228616100248e-01 2.17800384983031781e-01 -4.05753228616100248e-01 5.89805966713032319e-04 1.94481620324905955e-03
1.24200000000000000e+10 1.40519032429136658e-06 4.81889708497127496e-04 8.24905996263402413e-02 -4.53742667344494144e-01 8.24905996263402413e-02 -4.53742667344494144e-01 9.96656860971738626e-04 2.65076085765695213e-04
1.24300000000000000e+10 3.99813885781499258e-04 4.94609551880348841e-04 -6.07748725742731644e-02 -4.57679211583179701e-01 -6.07748725742731644e-02 -4.57679211583179701e-01 2.85560530765394062e-04 -8.14711101271068489e-05
1.24400000000000000e+10 -1.25551687279723263e-03 -2.31094138645651995e-03 -1.99928241906518561e-01 -4.14431301757669512e-01 -1.99928241906518561e-01 -4.14431301757669512e-01 -1.14355641673364995e-04 -8.00549510163399598e-04
1.24500000000000000e+10 -5.80980930825937309e-04 8.48247747436138588e-04 -3.18673436085275152e-01 -3.32410449377757766e-01 -3.18673436085275152e-01 -3.32410449377757766e-01 -5.93749624883681010e-04 1.37119472300364746e-03
1.24600000000000000e+10 3.33160796825149905e-04 7.15567188055616396e-04 -4.05361535347369184e-01 -2.17742091779334679e-01 -4.05361535347369184e-01 -2.17742091779334679e-01 6.60002698647464345e-04 8.73770175401788855e-04
1.24700000000000000e+10 4.72928490886849299e-04 -9.37132446787680771e-04 -4.52313828618184366e-01 -8.20080393202363839e-02 -4.52313828618184366e-01 -8.20080393202363839e-02 -9.52409028139531051e-04 -1.90166327607468628e-04
1.24800000000000000e+10 -1.72512638654224656e-04 4.68588615232178333e-04 -4.56938430244655025e-01 6.17297924192569542e-02 -4.56938430244655025e-01 6.17297924192569542e-02 4.47511999450990222e-04 3.59903602872970797e-04
1.24900000000000000e+10 2.01209129450315915e-05 -1.05014385577497564e-04 -4.13479746718001751e-01 2.01198035803989206e-01 -4.13479746718001751e-01 2.01198035803989206e-01 -4.84424139464238114e-05 1.01595019705526864e-03
1.25000000000000000e+10 2.34231400562047453e-04 3.35608164774707431e-04 -3.32698371494485001e-01 3.18647653052643975e-01 -3.32698371494485001e-01 3.18647653052643975e-01 2.47796874127089394e-04 -2.07983992104709763e-04
1.25100000000000000e+10 1.25675619550140991e-03 -8.92010583000675344e-04 -2.16138207588468023e-01 4.05038165436371000e-01 -2.16138207588468023e-01 4.05038165436371000e-01 -3.03798361843711712e-04 4.29858743518919532e-04
1.25200000000000000e+10 9.54395465286007124e-04 -3.65676536484414022e-04 -8.01731509610025816e-02 4.52760467313035431e-01 -8.01731509610025816e-02 4.52760467313035431e-01 2.79549149984280722e-04 -4.78594967471447565e-04
1.25300000000000000e+10 1.41820831376857906e-03 -7.50127694582075513e-04 6.37260272746167922e-02 4.54565863931311098e-01 6.37260272746167922e-02 4.54565863931311098e-01 -4.44660104219828719e-04 -7.47883213839185720e-05
1.25400000000000000e+10 -5.85464945149868259e-04 2.23771632250145490e-04 2.01683808748726656e-01 4.12960854586415960e-01 2.01683808748726656e-01 4.12960854586415960e-01 -1.14128274471102221e-03 6.54531672892257293e-04
1.25500000000000000e+10 -3.48370163704579976e-04 1.01620410427122614e-03 3.18131841837013762e-01 3.31703715795583720e-01 3.18131841837013762e-01 3.31703715795583720e-01 7.11247257948591552e-04 -8.90440644760375237e-04
1.25600000000000000e+10 -1.40250201045567557e-04 8.64554531049924429e-04 4.05147001715934429e-01 2.16775843874070395e-01 4.05147001715934429e-01 2.16775843874070395e-01 -1.32024527204001514e-03 4.37380402851410288e-04
1.25700000000000000e+10 -3.55653719121071384e-04 3.53144663769525298e-04 4.51642168984781267e-01 7.84133913207093608e-02 4.51642168984781267e-01 7.84133913207093608e-02 -2.97616715243351638e-05 -3.36181101285916082e-04
1.25800000000000000e+10 1.16202226840859233e-06 -1.67696102673580913e-03 4.54415787397685123e-01 -6.30644562544405984e-02 4.54415787397685123e-01 -6.30644562544405984e-02 1.77424088372386585e-04 2.09933315553909809e-04
1.25900000000000000e+10 9.45803240868806181e-04 5.44164215571278143e-04 4.11447522076541616e-01 -2.00696715461618963e-01 4.11447522076541616e-01 -2.00696715461618963e-01 -8.48385245911338279e-05 6.09816091466175458e-04
1.26000000000000000e+10 -3.13267090926684470e-04 6.85728489216219975e-04 3.30394782597410508e-01 -3.19328051688175241e-01 3.30394782597410508e-01 -3.19328051688175241e-01 8.99741867383424977e-04 -1.03693396463105610e-03
1.26100000000000000e+10 -9.43681499925618189e-04 9.78965779256001350e-04 2.13619616196014717e-01 -4.04689946566265391e-01 2.13619616196014717e-01 -4.04689946566265391e-01 6.43161753231648661e-04 -5.87365980019857812e-05
1.26200000000000000e+10 7.29186968295184100e-04 1.75113426684026451e-04 7.91777278742043650e-02 -4.50535777843329655e-01 7.91777278742043650e-02 -4.50535777843329655e-01 -1.03574852831594412e-03 -7.08957532567530381e-05
1.26300000000000000e+10 -4.02871287970967126e-04 -2.63806671058097004e-04 -6.50330368548946436e-02 -4.53751242410850741e-01 -6.50330368548946436e-02 -4.53751242410850741e-01 -1.84457934536553109e-04 6.92598880149483133e-04
1.26400000000000000e+10 -1.29296018069306105e-04 -3.85265207976326433e-05 -2.02677526189023072e-01 -4.11226264375169459e-01 -2.02677526189023072e-01 -4.11226264375169459e-01 -4.79964608685166493e-04 1.10435180231205788e-03
1.26500000000000000e+10 -3.84045864910122485e-04 5.98846929979901022e-04 -3.20118422937850755e-01 -3.28295134244950715e-01 -3.20118422937850755e-01 -3.28295134244950715e-01 1.18922638050694761e-03 -1.12042037540884486e-03
1.26600000000000000e+10 1.18638328291587806e-03 -9.99957327566316405e-04 -4.05028376801221501e-01 -2.13224460555722528e-01 -4.05028376801221501e-01 -2.13224460555722528e-01 -3.79147870790255584e-04 4.17197173291469292e-04
1.26700000000000000e+10 -3.61091721206667807e-04 -8.64661982744466175e-04 -4.51066910482417927e-01 -7.88692019303450925e-02 -4.51066910482417927e-01 -7.88692019303450925e-02 3.89528068047714587e-04 2.07883459671503215e-04
1.26800000000000000e+10 -7.70175541465816524e-04 -1.34802940184430560e-03 -4.51757421499844880e-01 6.48808185447313640e-02 -4.51757421499844880e-01 6.48808185447313640e-02 4.43785441605528926e-04 2.80760369508265310e-04
1.26900000000000000e+10 -9.15715892309794362e-06 8.27501319697829534e-04 -4.08567070595243664e-01 2.02032995154297013e-01 -4.08567070595243664e-01 2.02032995154297013e-01 5.98042229273475874e-04 -4.77175668715753599e-05
1.27000000000000000e+10 -2.60101213076289193e-04 2.54586126825955721e-04 -3.27457573389284107e-01 3.19618467472433165e-01 -3.27457573389284107e-01 3.19618467472433165e-01 8.24746727550423127e-04 1.02949243279772183e-03
1.27100000000000000e+10 -5.48941187304663805e-04 -3.96455282722740061e-04 -2.13388074379520398e-01 4.03672124221088890e-01 -2.13388074379520398e-01 4.03672124221088890e-01 5.82140238220494309e-04 9.76962818360859169e-04
1.27200000000000000e+10 5.25851544901443442e-04 4.88486298208778524e-04 -7.77048441023887176e-02 4.50998225561071497e-01 -7.77048441023887176e-02 4.50998225561071497e-01 1.36409498328429377e-03 -9.07622297243088180e-04
1.27300000000000000e+10 -2.77940968116822127e-04 3.73564981973151342e-04 6.64952164253504036e-02 4.51617977859437081e-01 6.64952164253504036e-02 4.51617977859437081e-01 3.51768430383243120e-04 -7.31313904103285221e-04
1.27400000000000000e+10 -5.57376570724412768e-04 4.24145581904335927e-04 2.02093810489922615e-01 4.07868564659261745e-01 2.02093810489922615e-01 4.07868564659261745e-01 -1.72609508759272385e-03 1.82819029525154564e-04
1.27500000000000000e+10 7.18203621957615016e-04 -9.05487732276934036e-04 3.18731145684653050e-01 3.26107432826641341e-01 3.18731145684653050e-01 3.26107432826641341e-01 7.00682893101102510e-04 1.32835220206714447e-04
1.27600000000000000e+10 -5.70288255701851578e-04 -1.02743875060175380e-03 4.03738977562034140e-01 2.11628885031367980e-01 4.03738977562034140e-01 2.11628885031367980e-01 -9.56534208455865620e-04 -3.37790493125897338e-05
1.27700000000000000e+10 -5.02085399627198725e-04 -4.65583874160059379e-04 4.49960723551852848e-01 7.65362877300582861e-02 4.49960723551852848e-01 7.65362877300582861e-02 3.91636911978647062e-04 1.52120072577769885e-04
1.27800000000000000e+10 9.68756179090272539e-04 -9.36100957619553573e-04 4.51617385624802414e-01 -6.71405733645600716e-02 4.51617385624802414e-01 -6.71405733645600716e-02 1.36585172737160236e-04 1.63317538994265168e-03
1.27900000000000000e+10 -1.76639530944607752e-03 1.11301224157337049e-03 4.09142159934044514e-01 -2.01794928334993268e-01 4.09142159934044514e-01 -2.01794928334993268e-01 1.75546935687908695e-04 3.60898140882228043e-04
1.28000000000000000e+10 2.26793240339366554e-03 -6.05543847682045054e-04 3.26716676190718314e-01 -3.18610977508529236e-01 3.26716676190718314e-01 -3.18610977508529236e-01 4.82838487769660790e-04 -7.59141897350374306e-04
1.28100000000000000e+10 1.99004601544501298e-04 2.67523979223054727e-04 2.10598001319452083e-01 -4.03755338058909174e-01 2.10598001319452083e-01 -4.03755338058909174e-01 -7.38173029837462425e-04 -7.14832114601382843e-04
1.28200000000000000e+10 -4.12927555638358998e-04 8.03251912410621284e-04 7.55865623476370402e-02 -4.48359098353784624e-01 7.55865623476370402e-02 -4.48359098353784624e-01 -7.32317347602787715e-04 7.43730751265220019e-04
1.28300000000000000e+10 -1.86785571898221130e-04 6.21551774044169390e-04 -6.61296448056044317e-02 -4.50136058099137926e-01 -6.61296448056044317e-02 -4.50136058099137926e-01 -6.85499344557601964e-04 1.78935590881815855e-04
1.28400000000000000e+10 -1.31943087671318807e-04 -8.22882476221861899e-04 -2.02971099860573156e-01 -4.06944198695513404e-01 -2.02971099860573156e-01 -4.06944198695513404e-01 1.17469609037764390e-04 -6.21831639015039793e-05
1.28500000000000000e+10 -6.47703770637164016e-04 1.05001983373874115e-03 -3.18973001208449902e-01 -3.24275530359163622e-01 -3.18973001208449902e-01 -3.24275530359163622e-01 -1.61931097987093146e-03 1.61953003681975974e-04
1.28600000000000000e+10 -1.14266004898096719e-04 -4.22563551193705193e-04 -4.02775188496701853e-01 -2.08476683104722199e-01 -4.02775188496701853e-01 -2.08476683104722199e-01 4.94546918292616215e-04 3.03877698653772074e-04
1.28700000000000000e+10 7.97346720711835798e-04 6.80234548488415161e-05 -4.48977528176672691e-01 -7.41244286467276497e-02 -4.48977528176672691e-01 -7.41244286467276497e-02 2.18573378333329979e-04 -2.42280411727737480e-04
1.28800000000000000e+10 9.22622756563736007e-05 4.07457390392641403e-04 -4.49447025693685609e-01 6.75126861973619485e-02 -4.49447025693685609e-01 6.75126861973619485e-02 2.46348060286565203e-04 -8.34938744189648511e-04
1.28900000000000000e+10 6.93555111977251442e-05 -2.89833307335742455e-05 -4.06885917930131347e-01 2.02535064156081052e-01 -4.06885917930131347e-01 2.02535064156081052e-01 1.17932714723148480e-03 -1.12616328144987535e-04
1.29000000000000000e+10 1.16200303357256183e-03 1.75700459594953077e-03 -3.24260328847685075e-01 3.18469186997591580e-01 -3.24260328847685075e-01 3.18469186997591580e-01 4.25322645961321709e-04 -4.21712269078548753e-04
1.29100000000000000e+10 -4.30425321333864749e-04 4.67438073426171155e-04 -2.08324432053487385e-01 4.03383147875679027e-01 -2.08324432053487385e-01 4.03383147875679027e-01 -5.22310209728442734e-04 3.38965863226216790e-04
1.29200000000000000e+10 -7.97624871083243655e-04 1.72580505033458607e-04 -7.36382539579540085e-02 4.47777540168974031e-01 -7.36382539579540085e-02 4.47777540168974031e-01 -3.48644929489460448e-04 -9.15582882210025264e-04
1.29300000000000000e+10 2.00408127381245183e-04 -3.02043066953306175e-04 6.77859075994011878e-02 4.48577048548852497e-01 6.77859075994011878e-02 4.48577048548852497e-01 -7.48219920550125222e-04 1.12843071468554093e-03
1.29400000000000000e+10 -1.79237801193901257e-03 -1.17296957488955116e-03 2.04120871384940505e-01 4.05393373961619730e-01 2.04120871384940505e-01 4.05393373961619730e-01 2.53107085008382957e-04 -3.07756566804085179e-04
1.29500000000000000e+10 -1.49666776059664526e-03 3.32727459843334039e-04 3.17944129127369746e-01 3.21886564604401182e-01 3.17944129127369746e-01 3.21886564604401182e-01 -1.60796955782218233e-04 1.09890270617762583e-03
1.29600000000000000e+10 9.38411917947543604e-04 1.07400292605235276e-03 4.03193308489036006e-01 2.08725142651479956e-01 4.03193308489036006e-01 2.08725142651479956e-01 5.78873277374747993e-04 -6.41319014292480506e-04
1.29700000000000000e+10 2.92001736330485366e-04 -5.38370890329400574e-05 4.47143072478370429e-01 7.31612925788001911e-02 4.47143072478370429e-01 7.31612925788001911e-02 1.01745200453576693e-04 1.54310171205426848e-03
1.29800000000000000e+10 3.09911081570455314e-04 -4.30880522485213211e-04 4.47316309940216816e-01 -6.83506562383030120e-02 4.47316309940216816e-01 -6.83506562383030120e-02 -1.44431732588963697e-03 -5.66817967144005674e-04
1.29900000000000000e+10 2.71792588846543983e-04 -5.49033968336757228e-04 4.04294408998865040e-01 -2.03171037495079532e-01 4.04294408998865040e-01 -2.03171037495079532e-01 -1.05642241295100608e-03 7.55326392792226220e-04
1.30000000000000000e+10 -1.61313642552593495e-04 8.26838619524120576e-04 3.22303006303722717e-01 -3.19005217793237816e-01 3.22303006303722717e-01 -3.19005217793237816e-01 -6.30518554568600511e-04 -6.00619825997632641e-04
1.30100000000000000e+10 -2.26651213590878405e-04 3.94594651605770490e-04 2.06763316282335879e-01 -4.02090817925005783e-01 2.06763316282335879e-01 -4.02090817925005783e-01 -6.09209479546828016e-04 -3.88279971069492829e-04
1.30200000000000000e+10 -4.92820165001450587e-04 1.42761900458977082e-03 7.23005668739151175e-02 -4.46389354908626801e-01 7.23005668739151175e-02 -4.46389354908626801e-01 6.23948054669640922e-04 -2.66142451473939479e-04
1.30300000000000000e+10 8.04744131818956824e-05 -8.72255611595781997e-04 -6.86031579346542131e-02 -4.46669617320801571e-01 -6.86031579346542131e-02 -4.46669617320801571e-01 -1.45927342580709664e-04 1.65289566592337490e-05
1.30400000000000000e+10 6.32666909699869433e-05 8.02540755003161902e-04 -2.05107835931274768e-01 -4.03645269041343346e-01 -2.05107835931274768e-01 -4.03645269041343346e-01 3.02144246640080009e-04 -8.85636468245187066e-04
1.30500000000000000e+10 6.26772384421487531e-04 -5.48323746850063322e-04 -3.18649381538988363e-01 -3.20628077208561180e-01 -3.18649381538988363e-01 -3.20628077208561180e-01 7.26966987637746656e-04 5.70493490144880454e-04
1.30600000000000000e+10 8.32715503802770700e-04 -3.60754106626863177e-04 -4.01983735493481487e-01 -2.04992771680282293e-01 -4.01983735493481487e-01 -2.04992771680282293e-01 3.33586069316433535e-04 1.63044738542387243e-03
1.30700000000000000e+10 1.37331262713652458e-03 -2.40970685681335758e-04 -4.46547094483839002e-01 -7.15228266819314812e-02 -4.46547094483839002e-01 -7.15228266819314812e-02 2.84680968276487139e-04 8.63419255469209570e-05
1.30800000000000000e+10 1.29449409648700630e-03 8.60136133511269266e-04 -4.46600179280412790e-01 6.94736572901129001e-02 -4.46600179280412790e-01 6.94736572901129001e-02 1.33866151468035096e-03 -5.71839200486155331e-04
1.30900000000000000e+10 1.16706685140899002e-04 2.88905034842308725e-04 -4.03033931084229247e-01 2.03475924452890339e-01 -4.03033931084229247e-01 2.03475924452890339e-01 4.47313665422889009e-04 9.31879136267664511e-04
1.31000000000000000e+10 5.94657288750767392e-04 1.42711583971419690e-03 -3.19857002053272943e-01 3.19378512974698991e-01 -3.19857002053272943e-01 3.19378512974698991e-01 1.93753042708064854e-04 -1.60820325152156193e-03
1.31100000000000000e+10 -2.08091293412567257e-04 -9.61651081370262957e-04 -2.05612185989950791e-01 4.02688884696694116e-01 -2.05612185989950791e-01 4.02688884696694116e-01 3.18225445452295652e-04 -1.54318563692336964e-05
1.31200000000000000e+10 7.29774302969400418e-04 1.17186766928164773e-03 -7.14179067171397813e-02 4.45475663670545197e-01 -7.14179067171397813e-02 4.45475663670545197e-01 -6.52759917531682104e-05 -2.03587865075527380e-04
1.31300000000000000e+10 1.46227820173240944e-03 4.79672323041912879e-04 7.07877488787510556e-02 4.46028257865320688e-01 7.07877488787510556e-02 4.46028257865320688e-01 -9.80373296342267010e-04 -1.09309053708256821e-03
1.31400000000000000e+10 5.81983730233307526e-04 -2.76448268044120638e-04 2.03819201124185417e-01 4.02178405949194961e-01 2.03819201124185417e-01 4.02178405949194961e-01 -1.01786489521525224e-03 -5.95827834920868173e-04
1.31500000000000000e+10 1.26217640299250378e-06 -7.80999338206960479e-04 3.19713499979562665e-01 3.18856917409329643e-01 3.19713499979562665e-01 3.18856917409329643e-01 7.00934002612266043e-04 -1.02374801494655495e-03
1.31600000000000000e+10 1.04214123438782936e-03 8.32822691296990886e-04 4.02128471819266087e-01 2.03888403238373900e-01 4.02128471819266087e-01 2.03888403238373900e-01 -1.90935999581889334e-04 -9.66348646315207420e-04
1.31700000000000000e+10 4.06950402067620949e-04 -3.25172767868058346e-04 4.46175920647882474e-01 7.04025249810383003e-02 4.46175920647882474e-01 7.04025249810383003e-02 1.46089330558019635e-03 6.96326746796924905e-04
1.31800000000000000e+10 -1.05871894513984090e-03 4.20924717077841371e-05 4.44904333757801085e-01 -7.16066088575532805e-02 4.44904333757801085e-01 -7.16066088575532805e-02 -4.18073106971956826e-04 -1.86508024990881031e-03
1.31900000000000000e+10 7.10285563641256668e-04 2.63671993439001083e-04 4.01316956232481536e-01 -2.05244587788604466e-01 4.01316956232481536e-01 -2.05244587788604466e-01 5.35002652589127619e-05 -2.68184625129181742e-04
1.32000000000000000e+10 -4.44854257139374308e-04 6.90607245254701622e-04 3.18018782757766072e-01 -3.18717194799309544e-01 3.18018782757766072e-01 -3.18717194799309544e-01 -7.95204725171414601e-06 -4.42821897541776667e-04
1.32100000000000000e+10 1.51784204080634034e-04 1.67092704216260696e-04 2.03400669818180946e-01 -4.00706200701423765e-01 2.03400669818180946e-01 -4.00706200701423765e-01 2.79613033397092012e-04 4.32338592485707353e-04
1.32200000000000000e+10 6.07326549314230257e-05 -1.03736084201724881e-04 6.99871617201703322e-02 -4.43309438278116086e-01 6.99871617201703322e-02 -4.43309438278116086e-01 -1.89894927456475660e-03 2.63493668141090468e-05
1.32300000000000000e+10 -1.22337994369608251e-04 7.70962714569763788e-06 -7.17432181441283595e-02 -4.43694073936865441e-01 -7.17432181441283595e-02 -4.43694073936865441e-01 2.75240794161174323e-04 2.19388868509698724e-04
1.32400000000000000e+10 6.45730037132985772e-04 -1.67301054547619823e-03 -2.04975183860147792e-01 -3.98692982745763203e-01 -2.04975183860147792e-01 -3.98692982745763203e-01 9.50726817076355730e-05 -5.35702775690472454e-04
1.32500000000000000e+10 -2.97772869720681346e-04 -7.27676039350912303e-05 -3.18141172927201954e-01 -3.16793144430861318e-01 -3.18141172927201954e-01 -3.16793144430861318e-01 1.33664130651562729e-03 9.14143539411317336e-04
1.32600000000000000e+10 3.46498884883454259e-04 3.27076636428285381e-04 -4.00709826790913437e-01 -2.02395253835385536e-01 -4.00709826790913437e-01 -2.02395253835385536e-01 3.49613682778868412e-04 5.27532140927462669e-04
1.32700000000000000e+10 -3.33922490187403803e-04 1.40547953673198769e-04 -4.44282295626443613e-01 -6.86034374846281741e-02 -4.44282295626443613e-01 -6.86034374846281741e-02 -5.40247035612284815e-04 -2.51920385117504497e-04
1.32800000000000000e+10 1.65551871409283573e-04 -6.79563096441268598e-04 -4.42552372928767423e-01 7.17138616890337921e-02 -4.42552372928767423e-01 7.17138616890337921e-02 2.43205176273949403e-04 -2.88882285697179310e-04
1.32900000000000000e+10 -1.85523353866930650e-04 -9.74318610066132111e-05 -3.98512561831500634e-01 2.05548579672808873e-01 -3.98512561831500634e-01 2.05548579672808873e-01 -1.97624082529144872e-04 -1.91618980297639973e-04
1.33000000000000000e+10 2.71402219076638030e-04 3.13644672457639290e-04 -3.16125396641591339e-01 3.18040248799731085e-01 -3.16125396641591339e-01 3.18040248799731085e-01 2.83999994663282948e-04 3.97728917643244185e-04
1.33100000000000000e+10 -6.19017385153911395e-04 8.61921737160708645e-04 -2.02750362143074125e-01 3.99985963283235324e-01 -2.02750362143074125e-01 3.99985963283235324e-01 3.95339406268783349e-04 6.43584337751706374e-04
1.33200000000000000e+10 1.02260127924216470e-03 4.90896435162121070e-04 -6.81235720187220034e-02 4.42810166456447107e-01 -6.81235720187220034e-02 4.42810166456447107e-01 -1.75104963670505952e-03 -1.41765580657520450e-03
1.33300000000000000e+10 8.16886628267171101e-04 1.38516986221927916e-03 7.26846086346892573e-02 4.42459011466274366e-01 7.26846086346892573e-02 4.42459011466274366e-01 1.66443505686193326e-03 3.07540874177872640e-04
1.33400000000000000e+10 1.05580284710218874e-03 -4.38878628910792986e-04 2.05413036764115653e-01 3.99008056985350024e-01 2.05413036764115653e-01 3.99008056985350024e-01 6.40316578805878911e-06 1.08870339229331144e-03
1.33500000000000000e+10 3.83039052039569163e-04 6.59961949161238192e-05 3.18301648488418132e-01 3.14495843192903690e-01 3.18301648488418132e-01 3.14495843192903690e-01 1.13888025452016091e-03 -3.99391159661635467e-06
1.33600000000000000e+10 4.98769903671092527e-04 -4.86279511344956392e-04 3.99818035015296613e-01 1.99582416031297144e-01 3.99818035015296613e-01 1.99582416031297144e-01 1.00587147555319598e-03 1.16752633892903672e-04
1.33700000000000000e+10 -8.60845659091874558e-04 -5.59638307755649846e-04 4.43124036200874427e-01 6.57133752916024827e-02 4.43124036200874427e-01 6.57133752916024827e-02 -8.51587636564158919e-04 5.45741089829466665e-06
1.33800000000000000e+10 7.46695698273551088e-04 -5.01327558661615862e-04 4.41046566722022082e-01 -7.38620098437315076e-02 4.41046566722022082e-01 -7.38620098437315076e-02 -3.41561575894739548e-04 1.04039483309543166e-03
1.33900000000000000e+10 2.58262231493379467e-04 -1.34533648573839973e-03 3.97478436576575278e-01 -2.06714512051834498e-01 3.97478436576575278e-01 -2.06714512051834498e-01 2.94897367479430802e-04 -3.62469584785439123e-04
1.34000000000000000e+10 1.21239332219623931e-04 -3.31059232928014959e-04 3.13236596128094069e-01 -3.20196610727835396e-01 3.13236596128094069e-01 -3.20196610727835396e-01 -1.27799370624249146e-04 -2.96526334464089101e-04
1.34100000000000000e+10 2.83402489181302448e-05 2.62814040758984507e-04 2.00130535227315165e-01 -3.99328982988857717e-01 2.00130535227315165e-01 -3.99328982988857717e-01 -3.88360174565427951e-04 -2.61784323081906212e-04
1.34200000000000000e+10 5.54036834038745341e-04 -6.00309489414879081e-05 6.60442905122258228e-02 -4.40779164883611629e-01 6.60442905122258228e-02 -4.40779164883611629e-01 -4.38317610964853658e-04 3.59737073207407098e-04
1.34300000000000000e+10 -6.54528470187346121e-04 8.64401975453848548e-04 -7.43158422755226811e-02 -4.40264270389518209e-01 -7.43158422755226811e-02 -4.40264270389518209e-01 -7.07440679609234167e-04 -1.00250570029064245e-04
1.34400000000000000e+10 -4.50902590792951602e-04 1.33383806946583251e-04 -2.05276214443494115e-01 -3.97085230530392630e-01 -2.05276214443494115e-01 -3.97085230530392630e-01 2.59413877139731953e-05 -4.41823385988591609e-04
1.34500000000000000e+10 1.27290814385090266e-03 -1.52536026260533561e-03 -3.19927796829304223e-01 -3.12124221682879899e-01 -3.19927796829304223e-01 -3.12124221682879899e-01 5.76015536481397318e-04 1.23896331147173831e-04
1.34600000000000000e+10 4.86920638462985667e-04 5.44834718557438927e-04 -4.00917252465573470e-01 -1.98474322086450161e-01 -4.00917252465573470e-01 -1.98474322086450161e-01 1.32060948318213405e-04 -6.52563285272787373e-04
1.34700000000000000e+10 1.36157084615326360e-04 8.40487757949829424e-04 -4.41265951960061797e-01 -6.55395478592172981e-02 -4.41265951960061797e-01 -6.55395478592172981e-02 -4.33341211704559655e-04 6.00155833710735651e-04
1.34800000000000000e+10 3.23414179463470293e-04 -1.62370908514175680e-04 -4.39323939049725776e-01 7.43954483784192711e-02 -4.39323939049725776e-01 7.43954483784192711e-02 -7.09438385744360451e-04 -1.36368453479472851e-04
1.34900000000000000e+10 -2.69815895524615527e-04 4.74455076438558428e-04 -3.94982227938126373e-01 2.06995399798601792e-01 -3.94982227938126373e-01 2.06995399798601792e-01 -6.37181090462745270e-04 1.01501510162697764e-03
1.35000000000000000e+10 6.20793017971213402e-04 -4.60873642524270500e-05 -3.12021990905797963e-01 3.19274627590411364e-01 -3.12021990905797963e-01 3.19274627590411364e-01 6.51491680288677415e-04 1.15065774541496372e-03
1.35100000000000000e+10 -2.13091442120560666e-03 9.82137849518903417e-05 -1.97427012353923848e-01 3.98169356701863320e-01 -1.97427012353923848e-01 3.98169356701863320e-01 3.55139695628891054e-04 1.04524484413004163e-05
1.35200000000000000e+10 4.82293365899983501e-04 2.59100401353226650e-04 -6.53214922479173898e-02 4.41209753414223471e-01 -6.53214922479173898e-02 4.41209753414223471e-01 1.18948333085090643e-03 6.87761070259217122e-04
1.35300000000000000e+10 -5.25930979231025234e-04 1.01759194538691335e-04 7.53947302336844677e-02 4.39553880880875658e-01 7.53947302336844677e-02 4.39553880880875658e-01 -4.80416291509398790e-05 -3.32513206104596815e-04
1.35400000000000000e+10 -1.33459191977300645e-03 -6.93229335851967506e-04 2.07342400495355655e-01 3.94017274507675541e-01 2.07342400495355655e-01 3.94017274507675541e-01 4.44777351931305035e-05 -7.68982377485095134e-04
1.35500000000000000e+10 -5.23487411694338340e-04 1.14376078998017780e-03 3.18558409372564355e-01 3.10901769078589796e-01 3.18558409372564355e-01 3.10901769078589796e-01 1.95547139640806292e-03 -1.09623535045575435e-03
1.35600000000000000e+10 -4.68662527090131747e-04 2.02933422773634480e-03 3.99859110061823675e-01 1.98128226130930951e-01 3.99859110061823675e-01 1.98128226130930951e-01 -1.04709757016965244e-04 -9.27449796244942380e-04
1.35700000000000000e+10 1.42452529601945005e-04 -7.38048191454951114e-04 4.41126801832654847e-01 6.44919249866734989e-02 4.41126801832654847e-01 6.44919249866734989e-02 6.72680897023885554e-04 2.31799356733237576e-04
1.35800000000000000e+10 3.00233864029435520e-04 4.10894649486139810e-04 4.37841325801471837e-01 -7.51766004172539776e-02 4.37841325801471837e-01 -7.51766004172539776e-02 2.04275833883053854e-04 9.12284252444972772e-04
1.35900000000000000e+10 1.64311407540470141e-04 1.49509237090188641e-03 3.93225447239139936e-01 -2.07265667604370513e-01 3.93225447239139936e-01 -2.07265667604370513e-01 -7.50742348698221870e-04 1.77781906575284429e-03
1.36000000000000000e+10 8.68387171616669964e-04 -4.49818463666233495e-04 3.09367134814145572e-01 -3.19515469316329126e-01 3.09367134814145572e-01 -3.19515469316329126e-01 4.89443004472956398e-04 -1.17281141032486163e-04
1.36100000000000000e+10 -5.23005979471539680e-04 4.52078697428788404e-04 1.96833613530121049e-01 -3.97964826579006226e-01 1.96833613530121049e-01 -3.97964826579006226e-01 -1.37859152689941990e-03 -5.55625061697199359e-05
1.36200000000000000e+10 6.25586448669179524e-04 4.17860765372070342e-04 6.31336002814599506e-02 -4.37969192100846172e-01 6.31336002814599506e-02 -4.37969192100846172e-01 -6.69722093374744659e-04 1.12255217595334656e-04
1.36300000000000000e+10 1.40749344903748873e-03 2.04177096803058564e-04 -7.58078303551675131e-02 -4.38071976090442627e-01 -7.58078303551675131e-02 -4.38071976090442627e-01 1.56768063023101848e-04 -1.29429020435082063e-04
1.36400000000000000e+10 1.18861317985016667e-04 1.31477054642738841e-03 -2.06873807574050189e-01 -3.92374335708094657e-01 -2.06873807574050189e-01 -3.92374335708094657e-01 -3.71825021675058882e-04 -1.50596381537285889e-04
1.36500000000000000e+10 1.14230320311012735e-03 -1.11857578133576813e-03 -3.19197276960554888e-01 -3.10422164890626906e-01 -3.19197276960554888e-01 -3.10422164890626906e-01 -3.78766159188272588e-04 -1.31840201294208527e-04
1.36600000000000000e+10 1.49979279663551277e-04 -1.44547933808196060e-03 -3.97034768798932958e-01 -1.94223071248053658e-01 -3.97034768798932958e-01 -1.94223071248053658e-01 -3.25724667964864519e-04 7.65454508932399526e-04
1.36700000000000000e+10 2.90442119168027139e-04 1.17523136124801923e-03 -4.39641201592841924e-01 -6.17451871962813384e-02 -4.39641201592841924e-01 -6.17451871962813384e-02 -5.23000921519418743e-04 8.91216940814541845e-04
1.36800000000000000e+10 2.12467294100004750e-04 -2.37678830506374240e-04 -4.35974570868968347e-01 7.52203274798596833e-02 -4.35974570868968347e-01 7.52203274798596833e-02 -9.18441899367635254e-04 2.41035861374957376e-04
1.36900000000000000e+10 1.80315586001699189e-04 -1.15275537473074632e-03 -3.91500706970355217e-01 2.08383961581112498e-01 -3.91500706970355217e-01 2.08383961581112498e-01 -1.44861644103764175e-04 3.01098237554455730e-04
1.37000000000000000e+10 -2.08251720583564316e-04 -3.97819519733254502e-05 -3.08890355739280253e-01 3.19270245288647059e-01 -3.08890355739280253e-01 3.19270245288647059e-01 -2.86830562311015042e-04 -5.42436685100368670e-04
1.37100000000000000e+10 -4.02517987548196940e-04 -3.33538115183011706e-04 -1.93942812364374745e-01 3.98027501222706581e-01 -1.93942812364374745e-01 3.98027501222706581e-01 -4.18552227289555761e-04 -1.29225899381838817e-03
1.37200000000000000e+10 2.27481267131016308e-04 1.23224020997478854e-03 -6.09808926692286951e-02 4.39443367299717835e-01 -6.09808926692286951e-02 4.39443367299717835e-01 -6.92156558739622473e-04 -1.35980460214988447e-03
1.37300000000000000e+10 -6.35691488439881283e-04 -8.44043826860620388e-04 7.68858026658885974e-02 4.36645495017673246e-01 7.68858026658885974e-02 4.36645495017673246e-01 -3.79127131483518508e-04 1.75786165052123675e-04
1.37400000000000000e+10 6.99159647281709005e-04 2.13990355598714323e-04 2.08523852364013884e-01 3.92064951450435462e-01 2.08523852364013884e-01 3.92064951450435462e-01 2.31835957960261333e-04 -1.39853498144403566e-05
1.37500000000000000e+10 8.54582335664035085e-04 -1.66913348866814451e-05 3.18411390806294547e-01 3.07269611596568626e-01 3.18411390806294547e-01 3.07269611596568626e-01 8.71545976124795486e-05 -1.06675960545866050e-04
1.37600000000000000e+10 8.50053515381594960e-04 -1.60763237338341951e-04 3.99676527710955409e-01 1.94795568059057372e-01 3.99676527710955409e-01 1.94795568059057372e-01 -2.70208565228586401e-04 -6.28754527101300139e-04
1.37700000000000000e+10 -2.04679177913404912e-04 -1.78065636554667955e-04 4.39364849660690560e-01 6.20197677193279062e-02 4.39364849660690560e-01 6.20197677193279062e-02 7.37863830047134900e-05 6.20267917635010271e-04
1.37800000000000000e+10 -9.90275926104127943e-04 1.53315074431963896e-03 4.35870308490666880e-01 -7.74063727044378841e-02 4.35870308490666880e-01 -7.74063727044378841e-02 2.94037388908099562e-05 -6.59234052058510142e-04
1.37900000000000000e+10 1.40460593108754269e-04 -1.55263060323781527e-04 3.90828600924253977e-01 -2.07723341982734122e-01 3.90828600924253977e-01 -2.07723341982734122e-01 -3.19004770470576293e-04 2.55570219135826016e-04
1.38000000000000000e+10 -3.58394679242631648e-04 -4.17054685393616897e-04 3.06039617848206325e-01 -3.19547335954355749e-01 3.06039617848206325e-01 -3.19547335954355749e-01 8.99606430245025864e-04 1.06593326038162796e-03
1.38100000000000000e+10 2.58065384165891241e-04 1.58319453317046352e-03 1.91075666213436413e-01 -3.98615514378712565e-01 1.91075666213436413e-01 -3.98615514378712565e-01 7.08866727855906676e-04 4.24718489302657130e-04
1.38200000000000000e+10 3.34849706970462117e-04 -5.24382805813976020e-05 5.84639060344977132e-02 -4.37806242146529689e-01 5.84639060344977132e-02 -4.37806242146529689e-01 1.19061926473570056e-03 -2.81763676573364586e-04
1.38300000000000000e+10 1.34621540567933821e-03 -8.26585844742166315e-04 -7.77820106256350702e-02 -4.34687720242447118e-01 -7.77820106256350702e-02 -4.34687720242447118e-01 4.92828411674838592e-04 3.11432404927088221e-04
1.38400000000000000e+10 -2.47823316116910144e-04 -5.36297602216347731e-05 -2.08801310923388300e-01 -3.88674336178613966e-01 -2.08801310923388300e-01 -3.88674336178613966e-01 8.54427097826722685e-04 9.86361724520183700e-04
1.38500000000000000e+10 -2.79376528493850479e-04 2.55684576584932794e-04 -3.18870823174081885e-01 -3.05052049564385808e-01 -3.18870823174081885e-01 -3.05052049564385808e-01 3.57279613746157364e-04 7.91103937453825753e-04
1.38600000000000000e+10 -9.77780902150627565e-04 -4.33940891691152891e-04 -3.97648698424939884e-01 -1.92338746020660034e-01 -3.97648698424939884e-01 -1.92338746020660034e-01 5.85204834722903838e-04 7.79986558668811038e-05
1.38700000000000000e+10 -1.25660079466661080e-03 2.05025371323823729e-05 -4.37231942453921441e-01 -5.99098785616251212e-02 -4.37231942453921441e-01 -5.99098785616251212e-02 -2.96345764780433639e-04 -4.42891888570327017e-04
1.38800000000000000e+10 -5.51313890342783656e-04 -5.83823999656331912e-04 -4.34926581717366423e-01 7.73451892657891771e-02 -4.34926581717366423e-01 7.73451892657891771e-02 -6.76009669851815168e-04 2.47880395937762413e-04
1.38900000000000000e+10 -5.06529363597933691e-04 3.53219830496028170e-04 -3.88992249276975732e-01 2.09865322232523660e-01 -3.88992249276975732e-01 2.09865322232523660e-01 -1.98750341937385964e-04 9.72508734188156634e-04
1.39000000000000000e+10 -3.04821632545698858e-04 3.51980714431513530e-05 -3.05441684905162769e-01 3.19322009976355070e-01 -3.05441684905162769e-01 3.19322009976355070e-01 2.16900221360048659e-04 8.11328297622344137e-04
1.39100000000000000e+10 1.70126049759151515e-04 4.03242736851951796e-04 -1.92178671266521800e-01 3.97322599747617244e-01 -1.92178671266521800e-01 3.97322599747617244e-01 7.12374125336439463e-04 6.48091627655632057e-04
1.39200000000000000e+10 -1.50473213637869501e-04 1.74374281078466310e-04 -5.85832893223943649e-02 4.35184955706468202e-01 -5.85832893223943649e-02 4.35184955706468202e-01 -5.17104365285573925e-04 7.35162929347233317e-04
1.39300000000000000e+10 -7.57567989053060595e-04 -1.32243820844335437e-03 7.89386539812054061e-02 4.33377635751918011e-01 7.89386539812054061e-02 4.33377635751918011e-01 -7.10236938157559066e-04 -6.36306512178662115e-04
1.39400000000000000e+10 6.92824832261380234e-04 -5.84579725201579128e-04 2.10502192255043491e-01 3.87651126063172702e-01 2.10502192255043491e-01 3.87651126063172702e-01 5.22900524403631817e-04 -7.95576407493080390e-04
1.39500000000000000e+10 1.28765059847255642e-06 5.96773873530393297e-04 3.18236646887166741e-01 3.03338711110690551e-01 3.18236646887166741e-01 3.03338711110690551e-01 -5.91858553766033365e-04 -2.74323676380593226e-04
1.39600000000000000e+10 -1.53134983117526598e-04 -7.47239713564783344e-04 3.96168582866973651e-01 1.91029635163701000e-01 3.96168582866973651e-01 1.91029635163701000e-01 -4.35896613838664430e-04 1.08555988656224554e-03
1.39700000000000000e+10 9.18061148586445520e-04 6.08783838267083462e-04 4.35783257116557243e-01 5.90112948578102176e-02 4.35783257116557243e-01 5.90112948578102176e-02 5.27323613354129537e-04 -1.52814798213144159e-04
1.39800000000000000e+10 7.29270288234843398e-04 -6.83079131571418836e-05 4.32657287357347986e-01 -8.11203393943479151e-02 4.32657287357347986e-01 -8.11203393943479151e-02 2.66836741733667221e-04 9.55269563584488883e-05
1.39900000000000000e+10 1.20606079946665570e-04 6.36031949125190072e-05 3.86091035489474155e-01 -2.09792109879689603e-01 3.86091035489474155e-01 -2.09792109879689603e-01 -1.65811219735188651e-04 1.33577612332705310e-03
1.40000000000000000e+10 4.74187317834288231e-04 -2.37554409800723096e-04 3.01963958101742924e-01 -3.19120510702944171e-01 3.01963958101742924e-01 -3.19120510702944171e-01 -3.50584692427634466e-04 2.61255467062631414e-04
1.40100000000000000e+10 2.90857802792280403e-04 1.48237620445092232e-04 1.89869461990941790e-01 -3.96487916842062804e-01 1.89869461990941790e-01 -3.96487916842062804e-01 3.20470178008460226e-05 -1.73394223904082775e-04
1.40200000000000000e+10 -2.35494574608688015e-04 -1.09872040164802048e-03 5.78380500576048812e-02 -4.34098800763080606e-01 5.78380500576048812e-02 -4.34098800763080606e-01 2.02368793885169542e-04 -1.79188943852957644e-03
1.40300000000000000e+10 3.76170778485542318e-05 -9.16624799795860966e-05 -7.99170439516500991e-02 -4.33008154005271706e-01 -7.99170439516500991e-02 -4.33008154005271706e-01 2.41499086539397637e-04 3.01212587232644539e-04
1.40400000000000000e+10 -4.14016352317675483e-04 7.66473633423040194e-04 -2.08815174280095023e-01 -3.86249851554614332e-01 -2.08815174280095023e-01 -3.86249851554614332e-01 9.06281379198968875e-04 -1.94739842707053451e-04
1.40500000000000000e+10 -1.48689937249210126e-04 8.98550173741765056e-05 -3.20116120322839315e-01 -3.02178845530778506e-01 -3.20116120322839315e-01 -3.02178845530778506e-01 -8.35012182579535577e-04 5.01781565878582354e-04
1.40600000000000000e+10 5.06961938507243925e-04 1.83085737935746837e-04 -3.96840907751766836e-01 -1.88774066144218072e-01 -3.96840907751766836e-01 -1.88774066144218072e-01 3.32800417701978920e-04 -7.23397044443424607e-04
1.40700000000000000e+10 -8.78903946638733761e-04 8.52963455038413835e-04 -4.34548834548090235e-01 -5.65764178594829054e-02 -4.34548834548090235e-01 -5.65764178594829054e-02 8.31167532496207128e-05 4.52451901973934759e-04
1.40800000000000000e+10 1.69315849643372715e-05 3.25448385019128062e-05 -4.31355516529658589e-01 8.03201855000006543e-02 -4.31355516529658589e-01 8.03201855000006543e-02 2.81819131768224851e-04 -9.81268027248847477e-05
1.40900000000000000e+10 -8.09305842816723385e-04 1.16207418802173395e-03 -3.84721056821201002e-01 2.09663038216878567e-01 -3.84721056821201002e-01 2.09663038216878567e-01 -1.71507090908278406e-04 8.88564692522667140e-05
1.41000000000000000e+10 1.14841245737811273e-03 2.59372641342775392e-04 -3.02523839476897149e-01 3.18074896114266592e-01 -3.02523839476897149e-01 3.18074896114266592e-01 1.33778481909697374e-04 1.36091503412954628e-03
1.41100000000000000e+10 -4.92400581803687952e-04 -1.42911534194279538e-03 -1.87433768751378654e-01 3.96260405542479377e-01 -1.87433768751378654e-01 3.96260405542479377e-01 6.60020347165048539e-04 1.85294804678357657e-04
1.41200000000000000e+10 -9.84039486510277514e-04 -2.78034612788521831e-04 -5.51379275171571745e-02 4.33668864493663320e-01 -5.51379275171571745e-02 4.33668864493663320e-01 -3.17986562377634886e-04 7.11983347266369432e-04
1.41300000000000000e+10 -1.75418801817194393e-04 2.23082812807600566e-04 8.04549136797670927e-02 4.30194487988918239e-01 8.04549136797670927e-02 4.30194487988918239e-01 -1.61331638134041069e-03 7.17416513589766192e-05
1.41400000000000000e+10 -3.66699593875330918e-04 1.01448714939315660e-03 2.09123560307229062e-01 3.83816666344361457e-01 2.09123560307229062e-01 3.83816666344361457e-01 -1.18537064165548790e-03 -2.89534754143615269e-04
1.41500000000000000e+10 7.92861205475589733e-04 5.17741692001902993e-04 3.19199273681201490e-01 2.99822957776380961e-01 3.19199273681201490e-01 2.99822957776380961e-01 2.01611482010421544e-04 -6.74980961323754696e-04
1.41600000000000000e+10 -6.90750601774935071e-04 2.84638621807881045e-04 3.96345750854670165e-01 1.86326656843260496e-01 3.96345750854670165e-01 1.86326656843260496e-01 5.62364441894251183e-05 -1.12282377541920680e-04
1.41700000000000000e+10 -1.92903147742779348e-04 2.42700180624427759e-04 4.33263467424343185e-01 5.53581411936370435e-02 4.33263467424343185e-01 5.53581411936370435e-02 6.96623482255591582e-05 4.47762874300318829e-05
1.41800000000000000e+10 -1.74093235016376966e-04 -1.96166852560451658e-04 4.29342036548834682e-01 -8.16579992276836725e-02 4.29342036548834682e-01 -8.16579992276836725e-02 -2.58337073690926981e-04 1.07017116804134968e-03
1.41900000000000000e+10 4.42006382132864844e-04 2.14246741952070843e-03 3.83607982820295235e-01 -2.11186072956728532e-01 3.83607982820295235e-01 -2.11186072956728532e-01 9.34621986231838555e-04 5.64380634994111939e-04
1.42000000000000000e+10 -2.20059245547999510e-04 3.67702996029288531e-06 2.98442231736886832e-01 -3.18142654722316065e-01 2.98442231736886832e-01 -3.18142654722316065e-01 1.01304238296494792e-04 -9.00919061036043432e-04
1.42100000000000000e+10 -1.17198284787811799e-03 4.59265328961996411e-04 1.85446418801893720e-01 -3.95473032138093039e-01 1.85446418801893720e-01 -3.95473032138093039e-01 7.18594122609605979e-04 6.05131740079027538e-04
1.42200000000000000e+10 1.12753969363592419e-03 4.82632313135239943e-04 5.50395252915076780e-02 -4.32269906047704489e-01 5.50395252915076780e-02 -4.32269906047704489e-01 1.07587061090770760e-04 6.00645210540161714e-04
1.42300000000000000e+10 -2.38625804976393011e-04 7.40574787552059619e-04 -8.18946052861332652e-02 -4.29438933284670477e-01 -8.18946052861332652e-02 -4.29438933284670477e-01 1.82448661773253437e-05 2.60476463016913165e-05
1.42400000000000000e+10 2.09996156040286432e-04 -8.01379095485657209e-04 -2.11099378571463964e-01 -3.81598009560802032e-01 -2.11099378571463964e-01 -3.81598009560802032e-01 1.29908772800126304e-04 1.56664463318349686e-04
1.42500000000000000e+10 -9.96540868769121282e-04 -1.23692603671402316e-04 -3.19516723804144642e-01 -2.99357646652168519e-01 -3.19516723804144642e-01 -2.99357646652168519e-01 7.81100553206936273e-04 -7.91604436969308182e-04
1.42600000000000000e+10 2.10202633812949739e-03 -9.88941817941384671e-04 -3.94833034044945519e-01 -1.85130362954560340e-01 -3.94833034044945519e-01 -1.85130362954560340e-01 2.57588976821799664e-05 -1.40076024920200335e-04
1.42700000000000000e+10 9.50173572239674386e-04 -2.14703764929619274e-04 -4.33719984409438986e-01 -5.50875562407484587e-02 -4.33719984409438986e-01 -5.50875562407484587e-02 -1.11691111867613093e-03 1.06056090901934921e-04
1.42800000000000000e+10 5.03153775798586070e-04 2.91937209902264332e-04 -4.27139056921716331e-01 8.35888186875763384e-02 -4.27139056921716331e-01 8.35888186875763384e-02 4.10264908479474727e-04 -7.91893552478671429e-04
1.42900000000000000e+10 -1.44021381697633687e-04 1.29055295337790645e-04 -3.80279646317320252e-01 2.11352659686482702e-01 -3.80279646317320252e-01 2.11352659686482702e-01 -3.67084262652967082e-04 -5.83614086534359959e-04
1.43000000000000000e+10 -9.72662753172405363e-05 3.78208953251826698e-04 -2.97870317737516044e-01 3.17678593797839082e-01 -2.97870317737516044e-01 3.17678593797839082e-01 -8.48067447945599325e-04 1.41217828572909039e-03
1.43100000000000000e+10 -1.60053226498341384e-04 2.94441159007131079e-04 -1.84534993089347066e-01 3.94727366154072390e-01 -1.84534993089347066e-01 3.94727366154072390e-01 -8.56201129581677864e-05 5.81797871399499108e-04
1.43200000000000000e+10 3.97787020666196380e-04 -2.27234365342188075e-04 -5.37415653546864172e-02 4.30632900623736714e-01 -5.37415653546864172e-02 4.30632900623736714e-01 8.92947283732098093e-04 -2.86643189690017769e-05
1.43300000000000000e+10 -2.23378262724511188e-04 8.06248485657905841e-05 8.22026581267614187e-02 4.28087294137995844e-01 8.22026581267614187e-02 4.28087294137995844e-01 -7.95712963678583290e-04 1.76470858548700039e-04
1.43400000000000000e+10 -2.99773539908815604e-04 -6.06147747775265017e-04 2.10866351947291919e-01 3.79735236075881610e-01 2.10866351947291919e-01 3.79735236075881610e-01 2.81902177316901124e-04 -2.56305928220857836e-04
1.43500000000000000e+10 8.42346810755251809e-05 -5.58154491242124936e-04 3.19095167322683948e-01 2.96022725234613981e-01 3.19095167322683948e-01 2.96022725234613981e-01 -3.37268532380252944e-04 -1.87679986772149645e-04
1.43600000000000000e+10 4.66980549330903659e-04 7.83689410359814337e-04 3.94419311435449949e-01 1.84543154370995277e-01 3.94419311435449949e-01 1.84543154370995277e-01 4.48215265972175833e-04 1.84115796694056587e-04
1.43700000000000000e+10 -5.11201772303223950e-04 2.42151215204120467e-04 4.32301553900416802e-01 5.40411024658319777e-02 4.32301553900416802e-01 5.40411024658319777e-02 -7.14920194130177827e-04 -2.82065494507059667e-04
1.43800000000000000e+10 1.55357800031845068e-03 7.66906285255177693e-04 4.25579207430797635e-01 -8.34297361069939736e-02 4.25579207430797635e-01 -8.34297361069939736e-02 -3.30821110632837007e-04 3.40756178769167873e-04
1.43900000000000000e+10 -5.94156598310524939e-05 -3.54194011459807174e-04 3.80902909005347734e-01 -2.11853596288808538e-01 3.80902909005347734e-01 -2.11853596288808538e-01 1.22143137090453802e-03 5.02895952236516857e-06
1.44000000000000000e+10 -7.02834222428155267e-04 -1.04970031190451500e-03 2.96637647713783204e-01 -3.17870294814486753e-01 2.96637647713783204e-01 -3.17870294814486753e-01 -1.01018481462745438e-03 2.11447613076339583e-04
1.44100000000000000e+10 1.28307344927739353e-03 1.70724916759175274e-04 1.82449599041678290e-01 -3.95171086165718222e-01 1.82449599041678290e-01 -3.95171086165718222e-01 3.99214709625748628e-04 1.01590454186065659e-03
1.44200000000000000e+10 1.65327551401537031e-04 3.15420453520394537e-04 5.13354383295494543e-02 -4.31387726894671697e-01 5.13354383295494543e-02 -4.31387726894671697e-01 4.86075661332368450e-05 -4.06327701238058927e-05
1.44300000000000000e+10 2.96771601878736719e-04 7.54923457009088893e-04 -8.47562861109650983e-02 -4.26022629853183898e-01 -8.47562861109650983e-02 -4.26022629853183898e-01 2.81312641708525652e-04 1.75094464461678740e-03
1.44400000000000000e+10 -9.92030728550460439e-05 -1.09963725733207298e-04 -2.12041135410018899e-01 -3.79875588557362753e-01 -2.12041135410018899e-01 -3.79875588557362753e-01 7.43218538442285900e-04 -1.46835005606152233e-04
1.44500000000000000e+10 -4.95576703788999260e-04 -7.30612355035057455e-05 -3.19412790664172885e-01 -2.95556374472570160e-01 -3.19412790664172885e-01 -2.95556374472570160e-01 5.01404020401715906e-04 -1.64461152889546196e-03
1.44600000000000000e+10 -6.84347412627729699e-04 -1.06723994382257255e-04 -3.93680421142833636e-01 -1.82145114404988373e-01 -3.93680421142833636e-01 -1.82145114404988373e-01 -6.76854701145359499e-04 9.43801759515358672e-04
1.44700000000000000e+10 9.19469890157019942e-04 -4.20241232266580267e-05 -4.30478591896798157e-01 -5.07386247403025722e-02 -4.30478591896798157e-01 -5.07386247403025722e-02 5.02301531006707600e-04 -1.38759855885266513e-04
1.44800000000000000e+10 -4.20075876094287346e-04 1.10489343525067493e-03 -4.25900009861863438e-01 8.39243654275933504e-02 -4.25900009861863438e-01 8.39243654275933504e-02 -5.86388513239214973e-05 2.77694488909884787e-04
1.44900000000000000e+10 4.34425271021345722e-04 1.39884761873134707e-04 -3.77708840233818288e-01 2.11670496213075210e-01 -3.77708840233818288e-01 2.11670496213075210e-01 1.09707073689711246e-03 1.48029218695886665e-04
1.45000000000000000e+10 2.16634749233348756e-04 4.67323905874281686e-04 -2.92917072230606257e-01 3.17573343132662611e-01 -2.92917072230606257e-01 3.17573343132662611e-01 -7.76100042062864096e-04 -1.53276297545051492e-04
1.45100000000000000e+10 -2.43734213687538700e-04 7.52544907036998092e-04 -1.81840290291244627e-01 3.94427512576796702e-01 -1.81840290291244627e-01 3.94427512576796702e-01 1.17027160766106092e-04 -9.38652390493144870e-04
1.45200000000000000e+10 -6.58860498020994389e-04 6.91026995323594019e-04 -5.02020397591387488e-02 4.29806008139768880e-01 -5.02020397591387488e-02 4.29806008139768880e-01 4.75353885542202857e-06 1.30537418103197558e-04
1.45300000000000000e+10 1.80966479481863327e-04 -5.88361079723830429e-04 8.51214076198373581e-02 4.25981247081136494e-01 8.51214076198373581e-02 4.25981247081136494e-01 -2.08540819072841350e-04 -8.22127839611930950e-04
1.45400000000000000e+10 7.56107799611110618e-04 -4.20866537125382687e-06 2.13461528990330773e-01 3.76900643827135451e-01 2.13461528990330773e-01 3.76900643827135451e-01 3.82367962852483176e-04 4.43073045373618916e-04
1.45500000000000000e+10 1.37841353347837654e-04 2.44580307989561527e-04 3.18589757651281225e-01 2.93291139641922605e-01 3.18589757651281225e-01 2.93291139641922605e-01 -4.03854778129402912e-04 3.54424724681991871e-04
1.45600000000000000e+10 -5.73484604973045265e-04 -7.69133167330544247e-04 3.92704955905964659e-01 1.81419432822340271e-01 3.92704955905964659e-01 1.81419432822340271e-01 3.48280842635307415e-04 9.85861571229808666e-04
1.45700000000000000e+10 2.40652485242883553e-04 2.57349620316982004e-04 4.30650102786866329e-01 5.00407205495078666e-02 4.30650102786866329e-01 5.00407205495078666e-02 -9.69848909907341031e-04 -6.51554574625317994e-05
1.45800000000000000e+10 4.02568856242010141e-04 -7.07362884554101740e-04 4.24779632300356758e-01 -8.49531202171508459e-02 4.24779632300356758e-01 -8.49531202171508459e-02 -8.26237741543272381e-04 2.58322313096770364e-04
1.45900000000000000e+10 6.30630869979881942e-04 3.00773304789529175e-04 3.76899953519314268e-01 -2.12562778847493777e-01 3.76899953519314268e-01 -2.12562778847493777e-01 3.01039170968095687e-05 -1.66435189854738215e-05
1.46000000000000000e+10 -1.06077943622604853e-03 -6.47738993331474066e-04 2.91816861166257657e-01 -3.18498040308477059e-01 2.91816861166257657e-01 -3.18498040308477059e-01 5.93048107806173918e-04 -1.22065688684290413e-04
1.46100000000000000e+10 7.17740050609189822e-04 6.53525830156816514e-04 1.79442110690820944e-01 -3.93566816598168889e-01 1.79442110690820944e-01 -3.93566816598168889e-01 -1.44857504127504064e-04 -2.91903389984273702e-04
1.46200000000000000e+10 9.27283056504012290e-04 7.45706004969283616e-04 4.93521527411020233e-02 -4.30451627913131962e-01 4.93521527411020233e-02 -4.30451627913131962e-01 4.26813396095738139e-04 5.30454449586470239e-04
1.46300000000000000e+10 5.41748446792532107e-04 5.18728962268821684e-04 -8.71273821561740353e-02 -4.23284601390610749e-01 -8.71273821561740353e-02 -4.23284601390610749e-01 2.19469373673098584e-03 6.67475152001886503e-04
1.46400000000000000e+10 4.46073004026944315e-04 4.73977972096338205e-04 -2.11053860324500686e-01 -3.76336470595118155e-01 -2.11053860324500686e-01 -3.76336470595118155e-01 -4.73040702207224697e-04 7.53387558749587941e-04
1.46500000000000000e+10 -1.10161601849426052e-03 -7.73796067633893809e-04 -3.17678775343608555e-01 -2.91197675028076919e-01 -3.17678775343608555e-01 -2.91197675028076919e-01 -1.10713465249515628e-03 -1.13463286107340811e-03
1.46600000000000000e+10 -4.34247443946494439e-04 -8.67728907135171461e-05 -3.92566395669401491e-01 -1.78624068255929996e-01 -3.92566395669401491e-01 -1.78624068255929996e-01 -8.81510684927664344e-04 6.52178686744593595e-04
1.46700000000000000e+10 8.25187098881026182e-05 3.93688836544872167e-04 -4.28442594406505395e-01 -4.84335046882559059e-02 -4.28442594406505395e-01 -4.84335046882559059e-02 -1.48627777909298879e-04 -1.34502365298155434e-04
1.46800000000000000e+10 -3.52064867601340945e-04 -7.66512403566194090e-05 -4.21375334680266944e-01 8.68116288594831115e-02 -4.21375334680266944e-01 8.68116288594831115e-02 5.11316912742634398e-05 9.73857290222502454e-04
1.46900000000000000e+10 1.83334038086780505e-04 -5.51036874142151107e-04 -3.74496589525317669e-01 2.12272944729019253e-01 -3.74496589525317669e-01 2.12272944729019253e-01 -4.83108189062292619e-04 1.86921736598574475e-04
1.47000000000000000e+10 -1.57895531711842055e-04 -5.53635000564056744e-04 -2.88942303820775348e-01 3.16949726911075425e-01 -2.88942303820775348e-01 3.16949726911075425e-01 -4.22411810613496390e-04 -3.05448122769551354e-04
1.47100000000000000e+10 1.14950648443618670e-03 -7.67729956575204905e-05 -1.79126912427336665e-01 3.93307774328269466e-01 -1.79126912427336665e-01 3.93307774328269466e-01 1.70930479260567204e-04 6.64782730633861754e-05
1.47200000000000000e+10 -3.47548454953331993e-04 6.34038595614377226e-04 -4.76427438902130226e-02 4.28093823960895070e-01 -4.76427438902130226e-02 4.28093823960895070e-01 4.76215038788954518e-04 -5.59781323535393652e-04
1.47300000000000000e+10 4.13042986102124022e-04 6.57847048056375643e-04 8.62916276773064428e-02 4.21052575387799555e-01 8.62916276773064428e-02 4.21052575387799555e-01 -7.23204366361912565e-04 8.94210313054722328e-04
1.47400000000000000e+10 4.06532748440057356e-04 1.59700165900420787e-05 2.13782233231484958e-01 3.73884062547728879e-01 2.13782233231484958e-01 3.73884062547728879e-01 4.52120829987167456e-04 8.31094498041317058e-04
1.47500000000000000e+10 1.01656897093898397e-03 -3.43020317177475994e-04 3.17577934926143279e-01 2.90053231968856684e-01 3.17577934926143279e-01 2.90053231968856684e-01 -6.26713294317573014e-04 1.58113561997011301e-04
1.47600000000000000e+10 -2.61997106150099269e-04 -6.21307307613196288e-04 3.92646297074102757e-01 1.76265590771260638e-01 3.92646297074102757e-01 1.76265590771260638e-01 -2.19305643251426640e-04 -1.69833021668634835e-04
1.47700000000000000e+10 -7.49216269414873146e-04 1.11443709572167540e-04 4.27969981615095862e-01 4.68570041612039953e-02 4.27969981615095862e-01 4.68570041612039953e-02 -3.89274360236183657e-04 -1.44722735893194866e-04
1.47800000000000000e+10 -4.86705957053711546e-04 -6.57586790002124850e-04 4.19995428423048101e-01 -8.74624037300215929e-02 4.19995428423048101e-01 -8.74624037300215929e-02 3.68987943357633799e-04 2.39907025437683446e-05
1.47900000000000000e+10 8.77823901358568148e-05 -1.47566275068115905e-05 3.73836527560163112e-01 -2.14799130720929404e-01 3.73836527560163112e-01 -2.14799130720929404e-01 -2.49658164338575396e-04 -1.49574257963242701e-04
1.48000000000000000e+10 1.56610392367503485e-04 -3.06176408660954649e-04 2.89715814904926316e-01 -3.17788766706904868e-01 2.89715814904926316e-01 -3.17788766706904868e-01 -6.40026205143427989e-04 -7.72742363126899734e-04
1.48100000000000000e+10 1.34448528077981116e-03 -4.34852231365422755e-04 1.76450996647135372e-01 -3.91240219085170482e-01 1.76450996647135372e-01 -3.91240219085170482e-01 -9.79653754126192733e-05 3.66166602002257577e-04
1.48200000000000000e+10 4.02389140519363139e-04 -1.10629032692063640e-03 4.67314970804834848e-02 -4.27386750686028993e-01 4.67314970804834848e-02 -4.27386750686028993e-01 -2.00456906781317060e-04 5.09019125993323508e-04
1.48300000000000000e+10 1.33781651255218074e-04 7.92891844627467788e-04 -8.71840907674441973e-02 -4.18476475987270835e-01 -8.71840907674441973e-02 -4.18476475987270835e-01 1.20189967675097425e-03 -4.08654863134048820e-04
1.48400000000000000e+10 8.64075969656043674e-04 7.04479007198207351e-04 -2.12360567753559742e-01 -3.72701672442766030e-01 -2.12360567753559742e-01 -3.72701672442766030e-01 6.04224303363575140e-04 7.82433535004116226e-04
1.48500000000000000e+10 1.07815103485548890e-04 2.58192481937573153e-04 -3.18606483022353115e-01 -2.87405841336117351e-01 -3.18606483022353115e-01 -2.87405841336117351e-01 -1.13031431154943246e-04 -1.78257095413823758e-04
1.48600000000000000e+10 -4.11937054866667169e-04 -1.02762329607272739e-03 -3.90800025422736008e-01 -1.74754093910359010e-01 -3.90800025422736008e-01 -1.74754093910359010e-01 -1.60605680164330341e-03 -6.95987365664168015e-04
1.48700000000000000e+10 -2.19798131104073397e-04 -1.97739529671831757e-04 -4.25899922821416754e-01 -4.72691283985147565e-02 -4.25899922821416754e-01 -4.72691283985147565e-02 2.93748748935897328e-04 -4.11155581022648955e-04
1.48800000000000000e+10 3.00623016252024383e-04 7.88462874586036812e-04 -4.19181260608145423e-01 8.76296888061234430e-02 -4.19181260608145423e-01 8.76296888061234430e-02 -9.15176474703771918e-04 -2.73053392217306908e-04
1.48900000000000000e+10 9.92039484019504496e-04 -7.89084808489042434e-04 -3.70870015189241731e-01 2.13386215719125999e-01 -3.70870015189241731e-01 2.13386215719125999e-01 9.14666299247127905e-04 7.15145460291635818e-05
1.49000000000000000e+10 2.15062601871051636e-04 -4.07781431638397243e-04 -2.87371785234508292e-01 3.17552230382470546e-01 -2.87371785234508292e-01 3.17552230382470546e-01 6.51831754306716332e-04 -1.00128885009471763e-03
1.49100000000000000e+10 -3.81497432194197108e-04 4.20600589373287673e-04 -1.75421235156073191e-01 3.91055144475846217e-01 -1.75421235156073191e-01 3.91055144475846217e-01 -1.28617985200038618e-03 -3.61154247372452958e-04
1.49200000000000000e+10 -5.64531742357437627e-04 6.17579117343347703e-05 -4.53023873460620327e-02 4.26261234877657103e-01 -4.53023873460620327e-02 4.26261234877657103e-01 -1.04033042324630487e-03 -7.70610958132663727e-04
1.49300000000000000e+10 -1.18271162340311724e-03 8.30047820851345652e-04 8.82740960298078886e-02 4.17790584739163473e-01 8.82740960298078886e-02 4.17790584739163473e-01 7.15338620979267940e-04 -8.10043121975404369e-04
1.49400000000000000e+10 -2.11269497183073723e-04 1.56601084846640971e-04 2.13983997631028100e-01 3.70987502697327387e-01 2.13983997631028100e-01 3.70987502697327387e-01 -7.55845638159250593e-04 -1.79639933433784014e-03
1.49500000000000000e+10 1.03839626349890553e-04 -8.54381720854618704e-04 3.18249467684437681e-01 2.87363140660642058e-01 3.18249467684437681e-01 2.87363140660642058e-01 -9.17309055184338269e-04 -1.77573940545947212e-04
1.49600000000000000e+10 -3.54921463774117321e-04 3.36871698282106326e-04 3.90467274473872805e-01 1.74588557293066410e-01 3.90467274473872805e-01 1.74588557293066410e-01 2.60574000275351915e-04 -7.63122241771237338e-04
1.49700000000000000e+10 -4.25653618302561235e-04 2.57127588177332963e-04 4.24040281246563955e-01 4.41938258318256977e-02 4.24040281246563955e-01 4.41938258318256977e-02 -3.85544028442048935e-04 2.10808724063846171e-04
1.49800000000000000e+10 1.00564209300475207e-03 -9.55189608593933447e-04 4.18977507674390903e-01 -8.78852511470524511e-02 4.18977507674390903e-01 -8.78852511470524511e-02 -3.97853371654570658e-04 8.72849428726663089e-04
1.49900000000000000e+10 -5.95564413796045747e-04 -4.04462101155612279e-04 3.69186418089925195e-01 -2.14646176071665584e-01 3.69186418089925195e-01 -2.14646176071665584e-01 -2.85027756649600648e-04 1.68950948956449865e-04
1.50000000000000000e+10 1.22511082514815706e-04 -4.25717075864984478e-04 2.86020612828360277e-01 -3.17804818284490975e-01 2.86020612828360277e-01 -3.17804818284490975e-01 1.19120504723417325e-03 -1.06030320713354704e-04
1.50100000000000000e+10 -1.35289667784267091e-04 2.83811269661419575e-04 1.74368137532254525e-01 -3.90427574342704087e-01 1.74368137532254525e-01 -3.90427574342704087e-01 7.61632287570422704e-04 -6.15305375762391273e-04
1.50200000000000000e+10 -1.76368981958383112e-04 6.99421207596047541e-04 4.28862282676394507e-02 -4.24830555957237510e-01 4.28862282676394507e-02 -4.24830555957237510e-01 -5.41875283386722385e-05 -7.94895549344729101e-04
1.50300000000000000e+10 1.12216168285488851e-03 5.03198768480621968e-04 -8.97134361246866435e-02 -4.16428309557808241e-01 -8.97134361246866435e-02 -4.16428309557808241e-01 1.24890332280126401e-03 5.68997828154203214e-04
1.50400000000000000e+10 -7.53334297422945031e-04 3.89842059236923091e-04 -2.12919414025039444e-01 -3.70746040214898431e-01 -2.12919414025039444e-01 -3.70746040214898431e-01 -3.23414447474766554e-04 2.73972889190581014e-04
1.50500000000000000e+10 -6.31170517782387837e-04 1.12539277202637037e-03 -3.18122180815454014e-01 -2.85307488062927828e-01 -3.18122180815454014e-01 -2.85307488062927828e-01 -4.02739172651281666e-04 6.18066369809242380e-04
1.50600000000000000e+10 -1.09076537056345410e-03 4.02182283241632791e-04 -3.90730193308299001e-01 -1.72144889059340861e-01 -3.90730193308299001e-01 -1.72144889059340861e-01 -1.62923316640130539e-03 9.33165292952392502e-04
1.50700000000000000e+10 8.75509143028140448e-04 9.31212861418527819e-04 -4.23735025348367489e-01 -4.30365704459655593e-02 -4.23735025348367489e-01 -4.30365704459655593e-02 -3.90089701674871077e-04 -6.01204148170347532e-05
1.50800000000000000e+10 -5.33004763813137096e-04 1.42576300166790803e-03 -4.15635760525510545e-01 8.99520508129090235e-02 -4.15635760525510545e-01 8.99520508129090235e-02 -7.13311236092327222e-04 -6.33655323448305469e-04
1.50900000000000000e+10 6.64232160142389427e-04 -1.01426563101935449e-05 -3.67296825824352746e-01 2.15281149886381307e-01 -3.67296825824352746e-01 2.15281149886381307e-01 5.31843364277177267e-04 6.53416700364887592e-05
1.51000000000000000e+10 2.53173809831404806e-05 -5.99139508718802717e-05 -2.83291165655672084e-01 3.17862134486548598e-01 -2.83291165655672084e-01 3.17862134486548598e-01 -7.65713010950871183e-05 4.73054102357508633e-04
1.51100000000000000e+10 8.05050684681564237e-04 -5.45316041608694037e-04 -1.71998052814191393e-01 3.90688253854484469e-01 -1.71998052814191393e-01 3.90688253854484469e-01 1.33941766286252515e-03 -8.08422061733280102e-04
1.51200000000000000e+10 5.97746078148677978e-04 -3.28917751479520777e-04 -4.26507963995507375e-02 4.24026537506925150e-01 -4.26507963995507375e-02 4.24026537506925150e-01 8.55367215006671427e-04 8.17428847281096447e-04
1.51300000000000000e+10 7.75553702792580540e-04 9.06640144503470448e-05 9.03144889158605940e-02 4.17820767804832904e-01 9.03144889158605940e-02 4.17820767804832904e-01 -7.44326664580899659e-04 -5.16217667041615432e-04
1.51400000000000000e+10 -8.69474650182401154e-04 1.34164109582518630e-03 2.14188765615029392e-01 3.67838689189103119e-01 2.14188765615029392e-01 3.67838689189103119e-01 -1.44616527647026792e-04 -5.23014710546965047e-04
1.51500000000000000e+10 -8.47148891018658772e-05 -1.34764773894466218e-03 3.19346495474437997e-01 2.83078923657221204e-01 3.19346495474437997e-01 2.83078923657221204e-01 2.15751463395582040e-05 -9.64107895819432052e-04
1.51600000000000000e+10 1.31700837450751977e-04 -9.34091224860019885e-04 3.89140565629600199e-01 1.70990196228137714e-01 3.89140565629600199e-01 1.70990196228137714e-01 1.05115728949941320e-03 -6.71395414171573317e-05
1.51700000000000000e+10 -9.52051303815402397e-04 5.91447237103538454e-04 4.23335100546917975e-01 4.07886836343311909e-02 4.23335100546917975e-01 4.07886836343311909e-02 -1.65756381060641019e-05 2.60274472675192073e-04
1.51800000000000000e+10 -3.62990892571843861e-05 1.56973966031907926e-03 4.15296265357342209e-01 -9.10780535025819959e-02 4.15296265357342209e-01 -9.10780535025819959e-02 -3.51326572425641884e-04 -1.23224333591536242e-03
1.51900000000000000e+10 -7.07194985051695993e-04 6.06467969186489045e-05 3.67403112384061037e-01 -2.14430131072610192e-01 3.67403112384061037e-01 -2.14430131072610192e-01 1.00281094730799618e-03 9.59017211711645987e-04
1.52000000000000000e+10 5.16392642744633082e-04 -4.32200933116571196e-04 2.83050529201908097e-01 -3.17075029210924120e-01 2.83050529201908097e-01 -3.17075029210924120e-01 1.70710735525589461e-04 3.80636224168973646e-05
1.52100000000000000e+10 -1.54222565640514436e-03 7.94275543555884758e-04 1.69333243079602375e-01 -3.89471083188375866e-01 1.69333243079602375e-01 -3.89471083188375866e-01 3.91130340478935089e-04 -1.26670400977430464e-03
1.52200000000000000e+10 -1.59680634962469864e-03 -2.29200164422482697e-04 4.14234441088011662e-02 -4.22135906927282589e-01 4.14234441088011662e-02 -4.22135906927282589e-01 2.82132709022609167e-04 -5.49296378849854381e-04
1.52300000000000000e+10 2.55654643678672824e-04 -7.71032577171399053e-04 -9.21233700960957663e-02 -4.15013395287163023e-01 -9.21233700960957663e-02 -4.15013395287163023e-01 -2.04645631663125089e-04 -8.81134440537504775e-05
1.52400000000000000e+10 -1.91329050786921364e-04 -4.17311808657965422e-04 -2.14867773401872547e-01 -3.66190573336472702e-01 -2.14867773401872547e-01 -3.66190573336472702e-01 -1.41979786712722261e-04 -6.01577893783770902e-04
1.52500000000000000e+10 -1.17656647942841188e-03 2.27847116182803276e-04 -3.15882438134186594e-01 -2.81060442559964707e-01 -3.15882438134186594e-01 -2.81060442559964707e-01 2.72278768675259712e-04 4.11542914452004446e-04
1.52600000000000000e+10 -1.18508696177680104e-04 1.62996279456141492e-03 -3.89231752811869891e-01 -1.70378134525612485e-01 -3.89231752811869891e-01 -1.70378134525612485e-01 5.74421724655620755e-04 -1.16857715925021112e-05
1.52700000000000000e+10 1.91741681766147002e-04 -6.59958622208524923e-04 -4.21709506590477623e-01 -4.02245785619496851e-02 -4.21709506590477623e-01 -4.02245785619496851e-02 -1.00643707053935127e-03 1.24071198949592544e-04
1.52800000000000000e+10 -1.41240280022922977e-03 9.09743398857896872e-04 -4.12837485352344324e-01 9.26941402798453357e-02 -4.12837485352344324e-01 9.26941402798453357e-02 1.95124546307892178e-04 5.29841554850676551e-04
1.52900000000000000e+10 2.41404596913084873e-04 7.97561573036819401e-04 -3.64152955299338665e-01 2.15113769975919994e-01 -3.64152955299338665e-01 2.15113769975919994e-01 -2.29682732501837033e-04 -8.89779179959390210e-04
1.53000000000000000e+10 3.95749727065831730e-04 1.08607005269099606e-03 -2.81679912069385918e-01 3.16917909796567587e-01 -2.81679912069385918e-01 3.16917909796567587e-01 -2.40926155639129924e-05 1.22731222392607662e-03
1.53100000000000000e+10 -1.40694491560294813e-05 1.49559694863668187e-04 -1.67715841476865662e-01 3.88158160381530781e-01 -1.67715841476865662e-01 3.88158160381530781e-01 -2.75202399326488867e-04 -8.86432716920754519e-05
1.53200000000000000e+10 1.49807172903451886e-03 -1.58826871125528172e-04 -4.17600991712843289e-02 4.21121302180112511e-01 -4.17600991712843289e-02 4.21121302180112511e-01 7.96813959252066074e-04 1.68914916387286843e-04
1.53300000000000000e+10 -1.19970836157472466e-03 1.88396548750028792e-05 9.30474892059225539e-02 4.14034111732528520e-01 9.30474892059225539e-02 4.14034111732528520e-01 6.03942677246877501e-04 1.42146823039478697e-04
1.53400000000000000e+10 -4.19952469079947432e-04 -6.98192927935008278e-04 2.15264967359459242e-01 3.63857658556425989e-01 2.15264967359459242e-01 3.63857658556425989e-01 -1.39230455623779624e-04 -6.47402618750032052e-04
1.53500000000000000e+10 5.99191403999233267e-04 7.61431596166302870e-04 3.17160217879245643e-01 2.80070382309189903e-01 3.17160217879245643e-01 2.80070382309189903e-01 2.85037422685046444e-04 -6.80877345681090177e-04
1.53600000000000000e+10 1.08714687991937132e-04 -3.81023461613957319e-04 3.88803336148875245e-01 1.67251786311953338e-01 3.88803336148875245e-01 1.67251786311953338e-01 1.85718215276008716e-04 -5.08623504250686385e-04
1.53700000000000000e+10 3.69368309036084610e-04 1.37864396592944920e-03 4.21574129588548840e-01 3.89222503639896217e-02 4.21574129588548840e-01 3.89222503639896217e-02 5.53322854698302014e-04 -5.01702398038128094e-04
1.53800000000000000e+10 5.30770215098922793e-04 -8.29402536032188063e-04 4.12352176299058681e-01 -9.38382385549019621e-02 4.12352176299058681e-01 -9.38382385549019621e-02 -8.93071290145774677e-06 1.75852333913051123e-04
1.53900000000000000e+10 -4.66417629028577114e-04 -1.78920131761621157e-03 3.63904297811474486e-01 -2.15401268823715963e-01 3.63904297811474486e-01 -2.15401268823715963e-01 -6.05443994663162921e-04 -8.60367095007329922e-04
1.54000000000000000e+10 -1.05705899140661480e-04 1.71725253339858534e-03 2.78795684380297171e-01 -3.17432868364945886e-01 2.78795684380297171e-01 -3.17432868364945886e-01 4.56425975345501299e-04 -2.46421454073072793e-04
1.54100000000000000e+10 4.00263529199847774e-04 -1.11254994965986976e-04 1.67466547877415717e-01 -3.88970202647164143e-01 1.67466547877415717e-01 -3.88970202647164143e-01 2.02379360768234712e-04 3.59398789909195430e-04
1.54200000000000000e+10 -8.96225692242184533e-04 -4.38377682328069962e-04 3.84423784399861163e-02 -4.20464560071425852e-01 3.84423784399861163e-02 -4.20464560071425852e-01 1.76955626348963244e-04 5.59883409976938634e-04
1.54300000000000000e+10 3.11189365902452399e-04 5.85490003107824470e-04 -9.36625561962690228e-02 -4.11466145831822117e-01 -9.36625561962690228e-02 -4.11466145831822117e-01 -3.69841421397312158e-04 6.80321906838985638e-04
1.54400000000000000e+10 -1.78279393054574204e-05 -1.92662877859125554e-04 -2.16661150730277502e-01 -3.62120992998054059e-01 -2.16661150730277502e-01 -3.62120992998054059e-01 -6.62516646980425516e-05 -5.64195753802755975e-04
1.54500000000000000e+10 8.35016597244378467e-04 -1.26360595656960836e-03 -3.18179203540758015e-01 -2.78631359516452459e-01 -3.18179203540758015e-01 -2.78631359516452459e-01 -8.92478302400391554e-04 1.15177066691713172e-04
1.54600000000000000e+10 7.68627886862805984e-04 1.14619706954923622e-03 -3.87736580722245039e-01 -1.65682298003205775e-01 -3.87736580722245039e-01 -1.65682298003205775e-01 1.15920438584695340e-03 -3.18220360948367494e-05
1.54700000000000000e+10 -8.79978609976914475e-04 -8.53361393054960938e-04 -4.19199675663367355e-01 -3.80969447673418157e-02 -4.19199675663367355e-01 -3.80969447673418157e-02 2.46933234403303857e-04 1.08456983952389882e-03
1.54800000000000000e+10 -7.73879290253810565e-04 -7.73997189910227744e-04 -4.10718992941925876e-01 9.26081898653245000e-02 -4.10718992941925876e-01 9.26081898653245000e-02 1.57403354241345992e-03 9.50090935756147379e-04
1.54900000000000000e+10 6.58147755375868828e-04 -3.19541305244159819e-04 -3.61605433273154531e-01 2.15617056810250479e-01 -3.61605433273154531e-01 2.15617056810250479e-01 -1.84971927422532815e-04 -2.79408026629149751e-05
1.55000000000000000e+10 -8.50956550699970586e-04 -3.59948342666497625e-04 -2.78030312992024631e-01 3.16567703986268045e-01 -2.78030312992024631e-01 3.16567703986268045e-01 -2.07099349379772946e-04 -8.83348878095646596e-05
1.55100000000000000e+10 6.83513385097179039e-04 1.90521585862321520e-04 -1.65444770411274034e-01 3.86931562927437633e-01 -1.65444770411274034e-01 3.86931562927437633e-01 1.21315601975335147e-03 1.76594711236604710e-06
1.55200000000000000e+10 -5.96305097421536540e-04 1.66088737837126943e-03 -3.81519526269106929e-02 4.18485670056173986e-01 -3.81519526269106929e-02 4.18485670056173986e-01 1.10407605343340953e-04 4.22681002360996599e-04
1.55300000000000000e+10 1.06732733655435222e-05 -5.84516232771282920e-04 9.52007698370773980e-02 4.10491042603141121e-01 9.52007698370773980e-02 4.10491042603141121e-01 5.22054582078681031e-04 -3.92839383242783236e-04
1.55400000000000000e+10 1.00306812006863047e-04 4.70237878150853240e-05 2.15834345065363004e-01 3.60736911076710132e-01 2.15834345065363004e-01 3.60736911076710132e-01 5.51476180108946708e-04 -7.48335472827655213e-04
1.55500000000000000e+10 1.76230248850902651e-03 8.45183937255342566e-04 3.17409239614569794e-01 2.77602921428834970e-01 3.17409239614569794e-01 2.77602921428834970e-01 -8.07970056756279124e-04 -7.84285520448861325e-04
1.55600000000000000e+10 -1.02747401324348054e-03 -2.59907690081303600e-04 3.86898945071492140e-01 1.64826819897782056e-01 3.86898945071492140e-01 1.64826819897782056e-01 2.21599494260257400e-04 -8.50917709521781468e-04
1.55700000000000000e+10 -4.22129612066516973e-04 -2.59597930679122827e-04 4.18653709815384467e-01 3.75021578505894265e-02 4.18653709815384467e-01 3.75021578505894265e-02 -2.61666433834194505e-04 3.49721367998094665e-04
1.55800000000000000e+10 9.77295714732063017e-04 -4.42427137158724602e-04 4.08824028355078750e-01 -9.43401848565331574e-02 4.08824028355078750e-01 -9.43401848565331574e-02 -2.65780366340616391e-04 -9.48646424789049622e-05
1.55900000000000000e+10 8.28589879655383926e-04 -2.88152499265675096e-04 3.61364882112782171e-01 -2.16469064790113352e-01 3.61364882112782171e-01 -2.16469064790113352e-01 -3.34715140576623499e-04 1.24873389384257084e-03
1.56000000000000000e+10 -4.59101728063039606e-05 -5.89905728968027269e-04 2.76922908866968687e-01 -3.16998509874711454e-01 2.76922908866968687e-01 -3.16998509874711454e-01 9.86754150863899775e-04 4.23846802072953160e-04
1.56100000000000000e+10 -4.76399803313018336e-04 3.59099247754054616e-04 1.63288482284084657e-01 -3.86390088254065400e-01 1.63288482284084657e-01 -3.86390088254065400e-01 1.80261361206542542e-04 -4.15070775028387302e-04
1.56200000000000000e+10 -5.44227772189666585e-04 -4.06261162319033444e-06 3.60141039486090303e-02 -4.18319926311012280e-01 3.60141039486090303e-02 -4.18319926311012280e-01 3.40573522937141554e-04 3.30978925934555755e-04
1.56300000000000000e+10 -1.05883562896956713e-03 5.99364150277386363e-04 -9.46555290083883616e-02 -4.08248515756049424e-01 -9.46555290083883616e-02 -4.08248515756049424e-01 4.24834764953211470e-04 6.06098304200588123e-04
1.56400000000000000e+10 -6.35008633640701624e-05 -4.16750986685485451e-04 -2.16016540113708133e-01 -3.60412096283170336e-01 -2.16016540113708133e-01 -3.60412096283170336e-01 -3.49183962808163146e-04 -2.14991046881609586e-04
1.56500000000000000e+10 -1.08828344169153459e-04 -6.53824609719165137e-04 -3.18315879540306990e-01 -2.74868460625008970e-01 -3.18315879540306990e-01 -2.74868460625008970e-01 -1.98836999066025026e-03 6.41085069932513995e-04
1.56600000000000000e+10 -6.85671553012151156e-04 1.08304785512620028e-03 -3.86441078128658466e-01 -1.63226815071141229e-01 -3.86441078128658466e-01 -1.63226815071141229e-01 6.81421513081057059e-05 2.18625254936009032e-04
1.56700000000000000e+10 -1.43740416275684227e-04 1.07004620898975980e-03 -4.17991095512154798e-01 -3.49805777806601534e-02 -4.17991095512154798e-01 -3.49805777806601534e-02 -1.99488356703416985e-05 6.86180726336987510e-04
1.56800000000000000e+10 8.81976121172703328e-05 -7.77819811088509196e-04 -4.08737713273273906e-01 9.46833548191749058e-02 -4.08737713273273906e-01 9.46833548191749058e-02 -1.05761878116018512e-03 -1.66518187959979963e-03
1.56900000000000000e+10 4.90432803692237608e-04 -1.84597130747704026e-04 -3.59533771858236650e-01 2.16982083583978247e-01 -3.59533771858236650e-01 2.16982083583978247e-01 1.09017876992570156e-03 3.62197078589103624e-04
1.57000000000000000e+10 -6.95075237874862788e-04 1.29234489239414899e-03 -2.74118157422581554e-01 3.16668523075386787e-01 -2.74118157422581554e-01 3.16668523075386787e-01 6.95691603668921400e-04 7.29133173489128743e-04
1.57100000000000000e+10 -2.84587679674931345e-04 4.51828183844586186e-05 -1.63163409630888684e-01 3.86450195747435832e-01 -1.63163409630888684e-01 3.86450195747435832e-01 -9.38409049964036591e-05 -2.55748773004085578e-04
1.57200000000000000e+10 6.73504048578788352e-04 -1.03076644554027570e-03 -3.49461177468047904e-02 4.16932713439671310e-01 -3.49461177468047904e-02 4.16932713439671310e-01 -8.98057889536910586e-05 2.02927682513791979e-03
1.57300000000000000e+10 -4.74477262775790132e-05 -3.61711430142569099e-04 9.67006163063392765e-02 4.08763061289337704e-01 9.67006163063392765e-02 4.08763061289337704e-01 -8.56543516219638625e-04 4.17665534092585757e-04
1.57400000000000000e+10 2.32565293807430269e-04 -1.23180101949188492e-03 2.18794007812261354e-01 3.58274642818021238e-01 2.18794007812261354e-01 3.58274642818021238e-01 4.02939989469894405e-05 -6.34720224477465338e-04
1.57500000000000000e+10 6.13071672978163186e-04 -6.08981947704129341e-04 3.16570956670900183e-01 2.73816744257390443e-01 3.16570956670900183e-01 2.73816744257390443e-01 -3.37565917149522301e-04 2.62924893183602091e-05
1.57600000000000000e+10 8.99152744460257017e-05 -5.32431323775047773e-04 3.85827276217486193e-01 1.60950096515791063e-01 3.85827276217486193e-01 1.60950096515791063e-01 -6.43217340895877788e-04 7.58579696604391686e-04
1.57700000000000000e+10 6.06041351681312415e-04 -5.11595081273946446e-04 4.16513642144379359e-01 3.40837887755906163e-02 4.16513642144379359e-01 3.40837887755906163e-02 5.41780590230870967e-04 1.27877831470029984e-03
1.57800000000000000e+10 -2.36891387514331705e-05 9.21342030953109368e-05 4.07892984617321097e-01 -9.65331660386868490e-02 4.07892984617321097e-01 -9.65331660386868490e-02 -7.28036757455571403e-05 -1.52891308163179867e-04
1.57900000000000000e+10 -5.56391494178510768e-04 -9.73800515921969677e-04 3.57921341392229975e-01 -2.17177625758926407e-01 3.57921341392229975e-01 -2.17177625758926407e-01 -9.35126425805729643e-04 -3.00507348852500477e-04
1.58000000000000000e+10 -2.20382086170596597e-04 1.13531607567504683e-04 2.72133538550607623e-01 -3.17932018908333280e-01 2.72133538550607623e-01 -3.17932018908333280e-01 7.67864015985422234e-04 2.25074653445073191e-04
1.58100000000000000e+10 3.60234436916362431e-04 -1.67710002185968263e-03 1.61040371593949821e-01 -3.86234297250912573e-01 1.61040371593949821e-01 -3.86234297250912573e-01 1.17571950187593532e-03 7.68250598005870136e-04
1.58200000000000000e+10 1.17573134063983690e-04 -5.62681874394027333e-04 3.28399797891682083e-02 -4.15697970770766534e-01 3.28399797891682083e-02 -4.15697970770766534e-01 -7.73638582324511740e-04 -8.49229525679774297e-04
1.58300000000000000e+10 -9.77628003476070477e-04 -1.26034093076562081e-03 -9.66349338621227544e-02 -4.06891285163765215e-01 -9.66349338621227544e-02 -4.06891285163765215e-01 -3.69572181384707321e-05 -3.45219328974762866e-04
1.58400000000000000e+10 2.59653553178989963e-04 -9.70765835946763451e-05 -2.17288184929955830e-01 -3.56681647871690488e-01 -2.17288184929955830e-01 -3.56681647871690488e-01 1.41457646204763986e-04 1.83485647170689809e-04
1.58500000000000000e+10 1.20683296594794199e-03 -5.92755952898942972e-06 -3.16667833976761737e-01 -2.72541922532396230e-01 -3.16667833976761737e-01 -2.72541922532396230e-01 -5.77052817649894071e-04 8.96444784249570922e-04
1.58600000000000000e+10 -3.24362380073225898e-04 1.01900439220817566e-03 -3.85569383114672815e-01 -1.59856090907251808e-01 -3.85569383114672815e-01 -1.59856090907251808e-01 -4.20849174856359937e-05 -6.48480277332538551e-04
1.58700000000000000e+10 -1.02010712157473826e-03 -1.18866823409154523e-04 -4.14998701761032096e-01 -3.36525946467881101e-02 -4.14998701761032096e-01 -3.36525946467881101e-02 -8.69754305442981923e-04 -5.40482912154475548e-04
1.58800000000000000e+10 3.54101001712068424e-04 6.20312553013626245e-04 -4.04894980154906436e-01 9.68339624627513607e-02 -4.04894980154906436e-01 9.68339624627513607e-02 5.00867827659657607e-04 6.04594340413260587e-05
1.58900000000000000e+10 1.43099024623052261e-04 5.44799847095142078e-04 -3.55467990021936187e-01 2.17432351912962923e-01 -3.55467990021936187e-01 2.17432351912962923e-01 1.16934512172443112e-03 2.45604282928166967e-04
1.59000000000000000e+10 5.57171856442214859e-04 8.21728237829900390e-04 -2.71616343203149702e-01 3.16833883909830472e-01 -2.71616343203149702e-01 3.16833883909830472e-01 4.48442860620936184e-04 6.70307764111999996e-04
1.59100000000000000e+10 -7.48444853886900334e-04 5.46296284131290479e-04 -1.58804276194048105e-01 3.86395158813012507e-01 -1.58804276194048105e-01 3.86395158813012507e-01 5.76120156440129575e-04 -4.07496491010798240e-04
1.59200000000000000e+10 1.85130998593848492e-03 -2.21628498220277974e-05 -3.23809773009293422e-02 4.13941140235655369e-01 -3.23809773009293422e-02 4.13941140235655369e-01 -1.05707776376713525e-04 -9.02148935174874574e-05
1.59300000000000000e+10 -1.66886191515944231e-04 7.02684406314114051e-04 9.79378978803073785e-02 4.05110813044754547e-01 9.79378978803073785e-02 4.05110813044754547e-01 4.05744951581952867e-04 3.10238362871433429e-04
1.59400000000000000e+10 3.77683979772395074e-04 4.12196986957450698e-04 2.18742060474873018e-01 3.55114739622597986e-01 2.18742060474873018e-01 3.55114739622597986e-01 4.11914352993416656e-04 9.82608199591132950e-04
1.59500000000000000e+10 -1.00079758734390820e-03 -6.93112248060136736e-04 3.16502970722663202e-01 2.70235199140459570e-01 3.16502970722663202e-01 2.70235199140459570e-01 1.27267588106862092e-04 3.45419874897111810e-04
1.59600000000000000e+10 3.73570015419987542e-04 -5.15242699062423031e-04 3.83847604339811632e-01 1.59115736504508665e-01 3.83847604339811632e-01 1.59115736504508665e-01 8.42669465309346818e-04 -7.73656672316924525e-04
1.59700000000000000e+10 -2.19898227960619268e-04 -9.36133026560403850e-04 4.15425569404295980e-01 3.00793879917072293e-02 4.15425569404295980e-01 3.00793879917072293e-02 6.51811959204385161e-04 -3.70132544720760211e-04
1.59800000000000000e+10 -4.09265023940652702e-04 1.70796946656612199e-04 4.04673446967939610e-01 -9.73071300665641625e-02 4.04673446967939610e-01 -9.73071300665641625e-02 8.83814689069505575e-04 -8.50331509325860310e-04
1.59900000000000000e+10 1.52832971331409961e-04 1.19037769627589832e-03 3.54481675036897592e-01 -2.19082645590996050e-01 3.54481675036897592e-01 -2.19082645590996050e-01 -7.74125704574621268e-04 2.02600081545134840e-03
1.60000000000000000e+10 -7.86478771131457043e-04 -1.77281815238888250e-04 2.69462770785097061e-01 -3.18036330935138056e-01 2.69462770785097061e-01 -3.18036330935138056e-01 -1.25080586186132429e-03 6.56777896440153110e-04
1.60100000000000000e+10 -3.92252022662265996e-04 -8.35178655319395976e-04 1.57901186411591371e-01 -3.82730431671242211e-01 1.57901186411591371e-01 -3.82730431671242211e-01 5.21097962841264063e-04 -2.41609311288869813e-04
1.60200000000000000e+10 1.02326340905865561e-03 -7.15684960590424980e-04 3.20533814152416802e-02 -4.15606334843463321e-01 3.20533814152416802e-02 -4.15606334843463321e-01 -8.57834066190416456e-04 3.60575597827540479e-04
1.60300000000000000e+10 -1.89940202853498905e-04 -7.56775023401021739e-05 -9.79519919076678597e-02 -4.05221011638518647e-01 -9.79519919076678597e-02 -4.05221011638518647e-01 -2.40239488760120567e-04 2.92858931419776600e-04
1.60400000000000000e+10 3.49418165894663669e-04 -2.07988039582649104e-03 -2.18872052636059772e-01 -3.53666810451690961e-01 -2.18872052636059772e-01 -3.53666810451690961e-01 -6.33194772041694907e-04 -2.22811425653946963e-04
1.60500000000000000e+10 1.93586149867571670e-03 2.84306246200730333e-04 -3.16930440943160197e-01 -2.68019541902705827e-01 -3.16930440943160197e-01 -2.68019541902705827e-01 -1.59229699236127336e-05 7.43041788747725719e-04
1.60600000000000000e+10 8.35313928932900724e-04 4.34136362207515722e-04 -3.83965728782025617e-01 -1.55662440134655577e-01 -3.83965728782025617e-01 -1.55662440134655577e-01 1.01631657122380997e-03 -3.00416489318424068e-04
1.60700000000000000e+10 1.87442419816582378e-03 -1.82094240363072621e-04 -4.13428178680777525e-01 -3.03647891525434151e-02 -4.13428178680777525e-01 -3.03647891525434151e-02 2.22010982097889430e-03 2.23997135207207765e-04
1.60800000000000000e+10 -2.28368202524497396e-04 8.05619102004272582e-04 -4.04428127187905828e-01 9.91326657456039900e-02 -4.04428127187905828e-01 9.91326657456039900e-02 3.15636047603022596e-04 2.92960678256808723e-04
1.60900000000000000e+10 4.76992549758341149e-04 -2.92844600061088434e-05 -3.53248525492796672e-01 2.17923918801645605e-01 -3.53248525492796672e-01 2.17923918801645605e-01 -8.85934311014339505e-04 1.54526272020223232e-04
1.61000000000000000e+10 -5.64585025700349010e-04 1.15144824361340051e-03 -2.68657069431235407e-01 3.16306922616785835e-01 -2.68657069431235407e-01 3.16306922616785835e-01 5.26093925532176513e-05 7.86828833937743563e-04
1.61100000000000000e+10 -4.38082911875357028e-04 7.73620640967804369e-04 -1.55185909621751744e-01 3.82469646490133486e-01 -1.55185909621751744e-01 3.82469646490133486e-01 8.35862516422307194e-04 -6.49506793636846588e-05
1.61200000000000000e+10 -1.15859344201705783e-04 -8.75461994469598805e-04 -3.02019766490705527e-02 4.14425367917673426e-01 -3.02019766490705527e-02 4.14425367917673426e-01 1.05308556491169819e-03 9.45122601822085610e-04
1.61300000000000000e+10 6.18351273929377610e-04 1.53835734862638532e-03 9.81180165608369903e-02 4.02713586018358105e-01 9.81180165608369903e-02 4.02713586018358105e-01 1.84812181101258547e-04 6.78940267197237373e-04
1.61400000000000000e+10 3.61276588433910974e-04 6.53911938319395782e-04 2.18773058184350888e-01 3.51023860290942513e-01 2.18773058184350888e-01 3.51023860290942513e-01 7.23965732917033946e-04 -1.77443270559704877e-04
1.61500000000000000e+10 -2.65790011368186951e-04 2.10853174861253754e-04 3.15320173656028380e-01 2.66424560283617051e-01 3.15320173656028380e-01 2.66424560283617051e-01 8.00253376269332867e-04 -1.62418744541301379e-03
1.61600000000000000e+10 -6.82003809095638289e-04 1.44251048668051060e-04 3.83127015423662010e-01 1.56377104901322922e-01 3.83127015423662010e-01 1.56377104901322922e-01 2.35218748203501146e-04 1.41687823972437088e-04
1.61700000000000000e+10 -9.41531527819529628e-04 1.76207624677672862e-03 4.12588164759676912e-01 3.01048925331211630e-02 4.12588164759676912e-01 3.01048925331211630e-02 -7.17784715803305149e-04 6.22267617748221199e-04
1.61800000000000000e+10 -4.48519004304191260e-04 7.98459203446033844e-04 4.00753848113023836e-01 -9.83453401045848302e-02 4.00753848113023836e-01 -9.83453401045848302e-02 -8.24277514537574544e-04 -5.94932903311216899e-04
1.61900000000000000e+10 6.05709571183900806e-04 3.31808551212651591e-04 3.51377808738797426e-01 -2.19085399077336512e-01 3.51377808738797426e-01 -2.19085399077336512e-01 9.60266069024710058e-05 -1.01979292917040148e-03
1.62000000000000000e+10 -3.99586097436535788e-04 7.42616230225999810e-05 2.65104290492534922e-01 -3.15831435129741267e-01 2.65104290492534922e-01 -3.15831435129741267e-01 -1.78144569538321845e-03 1.52641877216766302e-03
1.62100000000000000e+10 -4.09344738175983680e-04 2.09969107532127823e-04 1.54767293923729149e-01 -3.82896147975223089e-01 1.54767293923729149e-01 -3.82896147975223089e-01 2.17261821612780556e-04 3.28041297396999929e-04
1.62200000000000000e+10 6.61323737166576923e-04 1.57525022539117837e-04 2.88785401179473093e-02 -4.12821118107068397e-01 2.88785401179473093e-02 -4.12821118107068397e-01 5.10775307181666173e-05 5.96711218072985654e-04
1.62300000000000000e+10 -4.48748869408067139e-04 1.45668009844218812e-04 -1.00050783814983252e-01 -4.00648931941626762e-01 -1.00050783814983252e-01 -4.00648931941626762e-01 3.67079627818993868e-04 -4.51837229647043316e-04
1.62400000000000000e+10 -6.64652658348091597e-04 1.38812839901341820e-03 -2.18969836197167339e-01 -3.50185286286538111e-01 -2.18969836197167339e-01 -3.50185286286538111e-01 3.96024591204630270e-05 1.97406852959148340e-04
1.62500000000000000e+10 -6.71794019627420646e-04 -6.44542709807957863e-04 -3.17179138873053712e-01 -2.66049639912363689e-01 -3.17179138873053712e-01 -2.66049639912363689e-01 9.59489631352675979e-04 -2.05958305256043894e-04
1.62600000000000000e+10 5.62485502452369579e-04 1.27686905066673462e-03 -3.83032759831716807e-01 -1.56119497687031594e-01 -3.83032759831716807e-01 -1.56119497687031594e-01 -3.22753228930044536e-05 -3.97606841423667735e-05
1.62700000000000000e+10 5.53059899609573851e-04 -3.10467954822999347e-04 -4.12335584336917471e-01 -2.89832442506186352e-02 -4.12335584336917471e-01 -2.89832442506186352e-02 -2.67316467809918915e-05 -1.28105578875940530e-04
1.62800000000000000e+10 5.94879821394846001e-04 2.61680952440933063e-04 -4.00682015617275955e-01 1.00413709399050713e-01 -4.00682015617275955e-01 1.00413709399050713e-01 1.55906113480717073e-04 5.81393687073812485e-04
1.62900000000000000e+10 -1.37847894223955573e-03 3.41402743020110047e-04 -3.49307973359952950e-01 2.19999251591824374e-01 -3.49307973359952950e-01 2.19999251591824374e-01 -9.08185990339474699e-05 -9.09647323284838326e-04
1.63000000000000000e+10 1.34287917646953316e-03 1.64825609787885071e-03 -2.64236153565767240e-01 3.16788695786703878e-01 -2.64236153565767240e-01 3.16788695786703878e-01 -3.27663788317336278e-04 -9.12789602033518095e-04
1.63100000000000000e+10 3.77867155126445210e-04 9.82108828202335471e-04 -1.53405315696033023e-01 3.83188422238605109e-01 -1.53405315696033023e-01 3.83188422238605109e-01 -6.76276516615749814e-04 -4.38747543510187776e-04
1.63200000000000000e+10 1.14249602478241412e-05 -2.47726924437859629e-04 -2.63623193480884976e-02 4.10046254626641737e-01 -2.63623193480884976e-02 4.10046254626641737e-01 3.11270914678550450e-04 9.44092388950467096e-06
1.63300000000000000e+10 -1.05542832719940621e-03 3.26404108995327819e-04 1.00576465455683176e-01 3.98848343262241944e-01 1.00576465455683176e-01 3.98848343262241944e-01 2.81457346292092263e-04 -3.85824679895962769e-04
1.63400000000000000e+10 -5.73876824376972657e-05 -1.05397301216246780e-03 2.20299586275234827e-01 3.48085630875027807e-01 2.20299586275234827e-01 3.48085630875027807e-01 -2.83919139559011202e-04 -1.64098383385093680e-03
1.63500000000000000e+10 1.17474733177246808e-03 4.91253532374295778e-04 3.15829698636868217e-01 2.63403287574325407e-01 3.15829698636868217e-01 2.63403287574325407e-01 2.12346339014363677e-05 -2.19560798161887757e-04
1.63600000000000000e+10 8.56490826353061073e-04 -5.18538270504258114e-05 3.81063970288748721e-01 1.52504856428759245e-01 3.81063970288748721e-01 1.52504856428759245e-01 -6.08116313425688089e-04 1.52304762627503517e-04
1.63700000000000000e+10 4.24053231919168793e-04 -2.46477391994185638e-05 4.11670585823384394e-01 2.62691098593574868e-02 4.11670585823384394e-01 2.62691098593574868e-02 -4.53052123268606435e-04 -3.22005219285968877e-04
1.63800000000000000e+10 4.16145891060856266e-04 9.17149189440985167e-04 3.97958708465885769e-01 -1.00649367723972760e-01 3.97958708465885769e-01 -1.00649367723972760e-01 3.99630395647894324e-04 -5.03733010481439742e-04
1.63900000000000000e+10 1.13003402427996153e-03 9.64296382610188552e-04 3.47641447340823084e-01 -2.21224814381886070e-01 3.47641447340823084e-01 -2.21224814381886070e-01 -3.11064351598573229e-04 -3.23952786212063624e-04
1.64000000000000000e+10 9.33307318764590543e-04 2.97178022438146711e-04 2.63350968312052902e-01 -3.15551332187387235e-01 2.63350968312052902e-01 -3.15551332187387235e-01 7.19138410363592633e-04 8.72974615015910480e-04
1.64100000000000000e+10 8.49005319319192839e-04 -4.25459253897022161e-04 1.52077582692027480e-01 -3.82023799784677043e-01 1.52077582692027480e-01 -3.82023799784677043e-01 7.21117081970444824e-04 8.07867938104230130e-04
1.64200000000000000e+10 1.29504154238193519e-03 -3.89397247053529746e-04 2.63216957985374922e-02 -4.11042292174396251e-01 2.63216957985374922e-02 -4.11042292174396251e-01 6.46730942840405775e-04 1.23461485417334402e-03
1.64300000000000000e+10 -2.78511620077529203e-04 -8.50503554757229370e-04 -1.00495138512525090e-01 -3.98125877217841206e-01 -1.00495138512525090e-01 -3.98125877217841206e-01 4.16158355760438818e-04 -4.69973098637242194e-04
1.64400000000000000e+10 -8.91618132871049396e-04 -1.79587958091405542e-04 -2.19464789722840975e-01 -3.48379162890494920e-01 -2.19464789722840975e-01 -3.48379162890494920e-01 -3.52303599198264673e-04 8.28878327492733793e-04
1.64500000000000000e+10 6.03763352686205218e-04 8.85532075878106063e-05 -3.16207858665065178e-01 -2.62811926299612308e-01 -3.16207858665065178e-01 -2.62811926299612308e-01 -6.32215782494771606e-05 1.29273182145055122e-04
1.64600000000000000e+10 4.77208336312298068e-04 7.46808268795113916e-05 -3.81867748147448172e-01 -1.51779594632635101e-01 -3.81867748147448172e-01 -1.51779594632635101e-01 -1.90317213873646249e-03 -5.93829709287427765e-04
1.64700000000000000e+10 -3.66727868073846435e-04 -4.62262189161656188e-05 -4.09976163729465160e-01 -2.73179359999318715e-02 -4.09976163729465160e-01 -2.73179359999318715e-02 1.07751910700785341e-03 -5.98187400726910663e-04
1.64800000000000000e+10 -1.13730135100516836e-03 -2.71030869074183256e-05 -3.96162688765413606e-01 1.02119656283046839e-01 -3.96162688765413606e-01 1.02119656283046839e-01 1.12819841663795847e-04 -1.05173658047925372e-04
1.64900000000000000e+10 2.99787367714808128e-04 6.99753506101841107e-04 -3.46429155396623834e-01 2.20648607178316580e-01 -3.46429155396623834e-01 2.20648607178316580e-01 -1.18695205333773043e-04 -1.73682744596582154e-04
1.65000000000000000e+10 -3.97042431217683480e-04 1.54274594671260972e-04 -2.59871143381433967e-01 3.15935709424590871e-01 -2.59871143381433967e-01 3.15935709424590871e-01 -4.84979813451295221e-04 -8.79082672918125949e-04
1.65100000000000000e+10 3.31043029934589741e-04 -2.38923498715666545e-04 -1.50563628857238951e-01 3.80212455966429941e-01 -1.50563628857238951e-01 3.80212455966429941e-01 3.07808672393915128e-05 2.27551299664227396e-04
1.65200000000000000e+10 7.07342363376645849e-04 1.12691955144189680e-03 -2.50127578005574884e-02 4.09474088741485165e-01 -2.50127578005574884e-02 4.09474088741485165e-01 -1.22940199595521649e-03 -1.02478330937273330e-04
1.65300000000000000e+10 -1.17054897932740475e-03 -9.79205932799171374e-04 1.01969225020382720e-01 3.97297617502979317e-01 1.01969225020382720e-01 3.97297617502979317e-01 9.93362359373275734e-04 -1.26885808309904684e-03
1.65400000000000000e+10 1.34991714085481388e-03 3.11937391497732160e-04 2.19706563483254680e-01 3.45458238230378856e-01 2.19706563483254680e-01 3.45458238230378856e-01 4.99800223665331446e-05 -5.81032136919185506e-04
1.65500000000000000e+10 -7.88699301593507565e-04 -2.50843691322133847e-05 3.16202432759186081e-01 2.60490312055656592e-01 3.16202432759186081e-01 2.60490312055656592e-01 2.22676498489011591e-04 -1.57506250703595165e-04
1.65600000000000000e+10 -4.36804098543219430e-04 -5.70574348623650580e-04 3.80871211001452492e-01 1.50115097909523848e-01 3.80871211001452492e-01 1.50115097909523848e-01 3.50243458614018100e-04 -1.11769765373268362e-03
1.65700000000000000e+10 1.21668310586810083e-03 6.12395601097413876e-04 4.09917755715831889e-01 2.44725463939921700e-02 4.09917755715831889e-01 2.44725463939921700e-02 1.84192783214804528e-03 -1.37319183367829551e-04
1.65800000000000000e+10 -4.30355818188317115e-04 -1.32721695081250771e-03 3.94530527073965798e-01 -1.02508149929838838e-01 3.94530527073965798e-01 -1.02508149929838838e-01 7.61452011279328139e-05 -2.64227764232415486e-04
1.65900000000000000e+10 -7.98169338112436210e-04 1.17056387100296713e-03 3.45183442126806961e-01 -2.20167099750323364e-01 3.45183442126806961e-01 -2.20167099750323364e-01 -2.36346759928720716e-04 -5.99488001893730646e-05
1.66000000000000000e+10 -5.14797159548854486e-04 -3.57369674358978069e-04 2.59733718163353111e-01 -3.16508925131217589e-01 2.59733718163353111e-01 -3.16508925131217589e-01 7.34493198565842388e-04 1.27697058188356471e-04
1.66100000000000000e+10 2.78306808694852160e-04 -2.14689940541565126e-04 1.49295112770265470e-01 -3.81316151424106964e-01 1.49295112770265470e-01 -3.81316151424106964e-01 -5.79904586803935639e-04 6.83879800636463678e-04
1.66200000000000000e+10 -7.87639204569140733e-04 -3.61513249971183177e-04 2.45201509472962216e-02 -4.06109301880933360e-01 2.45201509472962216e-02 -4.06109301880933360e-01 -2.79234463250748691e-04 8.70424098371815427e-04
1.66300000000000000e+10 -6.86093975852103801e-04 1.13500647827515371e-05 -1.02711666085631523e-01 -3.94553660413880847e-01 -1.02711666085631523e-01 -3.94553660413880847e-01 4.51511306900410986e-06 -6.46662199029282743e-04
1.66400000000000000e+10 -1.93211050456936986e-04 -2.22225187558302163e-04 -2.19161118424269635e-01 -3.44669932153346958e-01 -2.19161118424269635e-01 -3.44669932153346958e-01 -4.54035601704579105e-04 -3.65882913597687781e-04
1.66500000000000000e+10 6.92316257577143103e-04 6.09631083846216772e-04 -3.15702015568196936e-01 -2.59566837475678991e-01 -3.15702015568196936e-01 -2.59566837475678991e-01 3.25054373135386923e-04 -1.88149837468496464e-04
1.66600000000000000e+10 8.54041611485722535e-05 3.02851989931218627e-04 -3.79628771515624630e-01 -1.50874778958666106e-01 -3.79628771515624630e-01 -1.50874778958666106e-01 1.09585691587686684e-03 -3.08793764576458483e-04
1.66700000000000000e+10 -9.17639112290082764e-04 -3.22559303388999754e-05 -4.06661937128394768e-01 -2.29059370912023802e-02 -4.06661937128394768e-01 -2.29059370912023802e-02 -1.82575723937131168e-04 4.34028551617779055e-04
1.66800000000000000e+10 2.67330217663151965e-04 -5.56489017577655115e-04 -3.94546740762967474e-01 1.04635336393014908e-01 -3.94546740762967474e-01 1.04635336393014908e-01 -3.56830129800333009e-04 7.67679059671651470e-04
1.66900000000000000e+10 -3.86965968584588097e-04 -5.85409780786759173e-05 -3.43165653384970348e-01 2.19570908535647202e-01 -3.43165653384970348e-01 2.19570908535647202e-01 -4.14926885454166997e-04 -7.93859322854613544e-04
1.67000000000000000e+10 5.06296911354880497e-04 4.08527632633276007e-04 -2.59285620689149621e-01 3.14465243594630406e-01 -2.59285620689149621e-01 3.14465243594630406e-01 -1.15053845711271980e-04 9.79942250069643301e-04
1.67100000000000000e+10 9.84287283920364355e-04 -1.07007000252701701e-03 -1.48001342528139845e-01 3.79747817701483137e-01 -1.48001342528139845e-01 3.79747817701483137e-01 -6.51281276244297159e-04 -5.30243778811662308e-04
1.67200000000000000e+10 -4.50708964867042487e-05 -3.64059513097090008e-04 -2.38063247210182696e-02 4.06389142142943915e-01 -2.38063247210182696e-02 4.06389142142943915e-01 5.62209040172737028e-04 -8.21810702703271081e-04
1.67300000000000000e+10 9.12614978440066667e-05 6.22634100017780139e-04 1.03714514514281750e-01 3.93124541275068629e-01 1.03714514514281750e-01 3.93124541275068629e-01 5.05560043037575732e-04 1.04647860815087275e-03
1.67400000000000000e+10 -4.87541004973584017e-05 -6.54153509209368122e-04 2.20122667927641208e-01 3.42445641546204826e-01 2.20122667927641208e-01 3.42445641546204826e-01 -2.25923463550771361e-04 7.62157875157654097e-04
1.67500000000000000e+10 -5.42989396882741422e-04 9.33454819250313650e-04 3.14890656091397325e-01 2.58427005101698415e-01 3.14890656091397325e-01 2.58427005101698415e-01 4.35823669055038047e-04 -1.84483490271889671e-04
1.67600000000000000e+10 -4.62967412176185490e-04 9.53494252101445990e-04 3.79282843434395278e-01 1.46827887414509917e-01 3.79282843434395278e-01 1.46827887414509917e-01 6.35668326572410105e-04 -1.25106961153341380e-03
1.67700000000000000e+10 -9.41564564441135093e-04 1.17114936794314278e-05 4.05932921327500362e-01 2.14955658708587127e-02 4.05932921327500362e-01 2.14955658708587127e-02 -3.89226203205057331e-04 5.14600167347097483e-04
1.67800000000000000e+10 1.11487617647357306e-03 1.76851198729852024e-04 3.93324027170506352e-01 -1.04519780983826555e-01 3.93324027170506352e-01 -1.04519780983826555e-01 1.22560586682594669e-04 -1.17978312182855419e-03
1.67900000000000000e+10 4.33018331044971228e-05 2.78639788781788868e-04 3.40952215103130896e-01 -2.20975768225730729e-01 3.40952215103130896e-01 -2.20975768225730729e-01 2.64466477556285680e-04 -1.94299215935012245e-03
1.68000000000000000e+10 6.00652064565564072e-04 -6.58161318170278958e-04 2.57924070424348506e-01 -3.15235423994226216e-01 2.57924070424348506e-01 -3.15235423994226216e-01 -1.38276682252595539e-04 4.58350071157217326e-04
1.68100000000000000e+10 4.23451075043401379e-04 -9.93177636456968761e-04 1.47149237754964468e-01 -3.78020947907226623e-01 1.47149237754964468e-01 -3.78020947907226623e-01 5.60290473880497035e-05 -1.32187745378647145e-03
1.68200000000000000e+10 1.49495140426683746e-03 -5.97413551080319270e-04 2.33588805970726572e-02 -4.06914960269518622e-01 2.33588805970726572e-02 -4.06914960269518622e-01 1.04322998178627458e-03 7.89475841664933481e-04
1.68300000000000000e+10 -8.76747965671420310e-04 -2.90071846036731972e-04 -1.04804021857576951e-01 -3.93175326190110919e-01 -1.04804021857576951e-01 -3.93175326190110919e-01 5.62828125513684541e-04 -3.57269871266713572e-04
1.68400000000000000e+10 7.91960039672389777e-05 -1.76159511449735460e-04 -2.22113567517089217e-01 -3.41792892814941796e-01 -2.22113567517089217e-01 -3.41792892814941796e-01 1.82147958650998227e-04 -7.83765135190340112e-04
1.68500000000000000e+10 1.44978239387688634e-03 -1.35442330482869180e-03 -3.14318788364087442e-01 -2.56666998989154127e-01 -3.14318788364087442e-01 -2.56666998989154127e-01 6.27177611110506087e-04 7.79402328690871507e-04
1.68600000000000000e+10 8.46837779205111184e-05 1.04835111062007570e-03 -3.79067664757427703e-01 -1.45582651838020133e-01 -3.79067664757427703e-01 -1.45582651838020133e-01 2.35916734687963159e-04 -1.66440400547952024e-03
1.68700000000000000e+10 -3.20096181709470190e-04 -1.35593784628231542e-04 -4.05802580907287325e-01 -2.25420311837816224e-02 -4.05802580907287325e-01 -2.25420311837816224e-02 1.55773226862711506e-04 -9.85367132730123564e-05
1.68800000000000000e+10 1.48309141833858444e-03 -1.19422822030745214e-04 -3.91696381774019498e-01 1.05904478763030108e-01 -3.91696381774019498e-01 1.05904478763030108e-01 2.13713372946288142e-04 -8.30621724500915128e-04
1.68900000000000000e+10 8.04735343406100321e-04 1.57724454464379686e-04 -3.39121380908269265e-01 2.21778236238552584e-01 -3.39121380908269265e-01 2.21778236238552584e-01 8.65259764659865541e-04 1.19214274880912060e-04
1.69000000000000000e+10 -6.95990636231618776e-04 1.64759428290940716e-04 -2.53955242331160791e-01 3.13830574857901945e-01 -2.53955242331160791e-01 3.13830574857901945e-01 6.58346174772843741e-04 -1.22906419324326528e-04
1.69100000000000000e+10 -8.46408834673546091e-04 1.07729131671458465e-03 -1.45313033939495378e-01 3.77869518620450262e-01 -1.45313033939495378e-01 3.77869518620450262e-01 -1.50160147832267723e-03 -6.02824092367820058e-04
1.69200000000000000e+10 -5.33417620728840296e-04 -3.77638187915544147e-04 -2.08715209169764299e-02 4.05124153872594317e-01 -2.08715209169764299e-02 4.05124153872594317e-01 2.42388368922287858e-04 -5.47599986915663518e-04
1.69300000000000000e+10 -2.43104086898848965e-04 3.95258394102663104e-04 1.05569452069723707e-01 3.91086240912696503e-01 1.05569452069723707e-01 3.91086240912696503e-01 -3.33975757296012818e-04 -4.21284476379712276e-04
1.69400000000000000e+10 3.26147428540148293e-04 -3.99962545440039926e-05 2.21265703113077888e-01 3.39523449743552974e-01 2.21265703113077888e-01 3.39523449743552974e-01 4.49209374179780803e-04 9.86813874570574346e-06
1.69500000000000000e+10 6.90317806245633919e-04 1.47147662197769959e-04 3.15895432281762312e-01 2.56065453841985591e-01 3.15895432281762312e-01 2.56065453841985591e-01 -1.46820360967278102e-04 -2.00173993890076572e-04
1.69600000000000000e+10 -1.20427450605153745e-03 -6.31010190562649744e-04 3.78857855315901049e-01 1.45577939404325035e-01 3.78857855315901049e-01 1.45577939404325035e-01 -9.87383115486202296e-04 -8.96593519849630247e-04
1.69700000000000000e+10 5.75086410185246598e-04 7.62597123602803831e-04 4.05349965645066201e-01 2.05624891577564292e-02 4.05349965645066201e-01 2.05624891577564292e-02 7.32860106049950722e-04 1.05944931474002686e-03
1.69800000000000000e+10 8.97209154853814174e-04 6.54747009912599507e-04 3.91618315465402378e-01 -1.05271591892121846e-01 3.91618315465402378e-01 -1.05271591892121846e-01 -5.90556895506705792e-04 2.58844753410742421e-04
1.69900000000000000e+10 -8.96946633564743557e-04 -5.71098347229277801e-04 3.37321166878119305e-01 -2.22909628803772658e-01 3.37321166878119305e-01 -2.22909628803772658e-01 8.98345727631978669e-05 -4.35452609255513354e-04
1.70000000000000000e+10 3.42665677413854042e-04 -4.16916396419936405e-04 2.53973617152522424e-01 -3.14468896790662367e-01 2.53973617152522424e-01 -3.14468896790662367e-01 -2.99959354254446536e-05 -6.65037104661820927e-04
1.70100000000000000e+10 7.08536602752576970e-04 1.45300160060375579e-04 1.43964058111674648e-01 -3.79340651674902052e-01 1.43964058111674648e-01 -3.79340651674902052e-01 -1.12454687561113452e-03 3.59619892188864170e-04
1.70200000000000000e+10 -9.78088882997097319e-04 3.99787542740507890e-04 2.06167189732281500e-02 -4.04417844476315624e-01 2.06167189732281500e-02 -4.04417844476315624e-01 3.76400583382416202e-04 4.80676700284537691e-04
1.70300000000000000e+10 -1.02261657646506563e-03 -7.42209437716659761e-04 -1.05221101935254760e-01 -3.90154995947827654e-01 -1.05221101935254760e-01 -3.90154995947827654e-01 -2.85019397125917400e-04 -4.68519203816337320e-04
1.70400000000000000e+10 8.56494739927512994e-04 -5.34519987678912814e-05 -2.21856315683949396e-01 -3.38473398579651974e-01 -2.21856315683949396e-01 -3.38473398579651974e-01 8.32766240845857664e-04 -5.50712869812707180e-04
1.70500000000000000e+10 5.61591970808726876e-04 6.42433001822727712e-04 -3.15491045948513515e-01 -2.52642088761970085e-01 -3.15491045948513515e-01 -2.52642088761970085e-01 -3.18045373831755138e-04 6.06626391881264068e-04
1.70600000000000000e+10 9.66811297058454587e-04 -3.25589728091081230e-04 -3.77600696586596007e-01 -1.43144244447319047e-01 -3.77600696586596007e-01 -1.43144244447319047e-01 -7.63415930311657173e-04 -8.52894999477493156e-04
1.70700000000000000e+10 -6.84086796282123771e-04 -5.87249278355274243e-04 -4.03821554643484293e-01 -1.85691407837059626e-02 -4.03821554643484293e-01 -1.85691407837059626e-02 -1.16178419856231946e-04 -5.85650685321400708e-04
1.70800000000000000e+10 -8.59984883438166532e-04 -1.19845921826672026e-03 -3.88305606961009853e-01 1.05906670554289664e-01 -3.88305606961009853e-01 1.05906670554289664e-01 -6.65613289578458989e-04 -5.64742467532524002e-04
1.70900000000000000e+10 -7.35625845528122728e-04 -8.21467984161744057e-04 -3.38706623469220813e-01 2.21521453855822503e-01 -3.38706623469220813e-01 2.21521453855822503e-01 -1.20251482428198841e-04 1.08929015693614621e-04
1.71000000000000000e+10 -2.18615440472457655e-04 -6.39549643149305838e-04 -2.51705310627977130e-01 3.15249606178518493e-01 -2.51705310627977130e-01 3.15249606178518493e-01 -3.43397221757489330e-04 1.72172978153582170e-04
1.71100000000000000e+10 -3.48853643845692529e-05 1.28484637500162380e-03 -1.42486239775932916e-01 3.77071219518553991e-01 -1.42486239775932916e-01 3.77071219518553991e-01 -5.07005883575799012e-06 2.62664511765821037e-04
1.71200000000000000e+10 -2.83732465174386071e-04 1.60801285297347698e-04 -1.90898299876842634e-02 4.02982195419648637e-01 -1.90898299876842634e-02 4.02982195419648637e-01 1.33025233480692158e-04 1.09967479718181766e-03
1.71300000000000000e+10 7.85782902913420740e-04 -3.39829356783783387e-04 1.08685651665236846e-01 3.89107135527741677e-01 1.08685651665236846e-01 3.89107135527741677e-01 -7.66201740736504894e-04 -4.46767881644816276e-05
1.71400000000000000e+10 -6.46473342225732835e-04 8.65420710227424931e-04 2.21763236330491748e-01 3.36741929334209711e-01 2.21763236330491748e-01 3.36741929334209711e-01 6.17769232170724703e-04 -1.15282665353501432e-03
1.71500000000000000e+10 1.74240219423839787e-04 4.03243187775312512e-04 3.14582792110310927e-01 2.51447386201427814e-01 3.14582792110310927e-01 2.51447386201427814e-01 6.03829739767268122e-04 -7.51832086857951679e-05
1.71600000000000000e+10 -9.49302591211424176e-04 -7.49502866273726344e-04 3.76987880081845250e-01 1.42452393571289776e-01 3.76987880081845250e-01 1.42452393571289776e-01 -5.86712516158349870e-04 3.96697250414660308e-04
1.71700000000000000e+10 -7.13995706542360354e-04 -1.11964625076030940e-03 4.01526425635212347e-01 1.85456963054536385e-02 4.01526425635212347e-01 1.85456963054536385e-02 -4.71609146833855029e-04 5.42030903268180182e-04
1.71800000000000000e+10 -5.01381855534475365e-04 5.40862788951209077e-04 3.87137499088921200e-01 -1.07604758423712712e-01 3.87137499088921200e-01 -1.07604758423712712e-01 -1.06593888177639604e-03 -5.25649487245829182e-04
1.71900000000000000e+10 -5.59046946911129368e-04 7.98695985851898471e-04 3.36266351326889312e-01 -2.22301711954948050e-01 3.36266351326889312e-01 -2.22301711954948050e-01 -8.52832434687737719e-04 6.58991986973652566e-05
1.72000000000000000e+10 2.51402752990885969e-04 -1.80495610924934148e-03 2.50733647379918989e-01 -3.15342736825593939e-01 2.50733647379918989e-01 -3.15342736825593939e-01 3.21640958485866892e-04 1.51451154169043970e-04
1.72100000000000000e+10 -1.18690787313271507e-03 1.36462187072568193e-04 1.40374547474600153e-01 -3.77942049841532235e-01 1.40374547474600153e-01 -3.77942049841532235e-01 4.17437838063217180e-04 7.98700805659305715e-04
1.72200000000000000e+10 1.37157665709792555e-03 -1.53230072101655587e-04 1.70504291729013206e-02 -4.02689344114688819e-01 1.70504291729013206e-02 -4.02689344114688819e-01 -1.23384200311081930e-03 1.63370020320671364e-04
1.72300000000000000e+10 1.96589314177264497e-04 5.79368291824038702e-04 -1.06643671547153360e-01 -3.87991970200082692e-01 -1.06643671547153360e-01 -3.87991970200082692e-01 1.08065760775006607e-04 -1.05137891814853046e-03
1.72400000000000000e+10 -4.99416341218109137e-04 2.26301796314100340e-04 -2.22646477972047979e-01 -3.34884714391079530e-01 -2.22646477972047979e-01 -3.34884714391079530e-01 7.10604373201888652e-04 3.45636061097159418e-04
1.72500000000000000e+10 1.76236149375879020e-03 4.83787380369587290e-04 -3.13854059161595200e-01 -2.48976782819586018e-01 -3.13854059161595200e-01 -2.48976782819586018e-01 4.42188487774000324e-04 -1.05568317167015115e-03
1.72600000000000000e+10 3.38390613786227509e-04 2.37889785077889768e-04 -3.76709005411045128e-01 -1.39507358289433614e-01 -3.76709005411045128e-01 -1.39507358289433614e-01 9.17251226748186610e-05 1.18489972411059906e-03
1.72700000000000000e+10 -9.01656972929386011e-05 -3.70669915087488923e-04 -4.02769728520226411e-01 -1.80392190609198928e-02 -4.02769728520226411e-01 -1.80392190609198928e-02 -1.71198463872885686e-03 1.89289359100962572e-04
1.72800000000000000e+10 3.32991399199529916e-04 -4.31510086284060484e-04 -3.87065334750759271e-01 1.08346880538316301e-01 -3.87065334750759271e-01 1.08346880538316301e-01 -4.93202698870348513e-04 1.08779483367324697e-03
1.72900000000000000e+10 1.15174662778516889e-04 -3.14734747441092742e-04 -3.34365052272263485e-01 2.21926912238057994e-01 -3.34365052272263485e-01 2.21926912238057994e-01 -7.48714923831973744e-04 -9.91068484760118445e-04
1.73000000000000000e+10 -8.72533815771255332e-04 -3.43429340075673156e-04 -2.48753483205807258e-01 3.15408260125360940e-01 -2.48753483205807258e-01 3.15408260125360940e-01 -7.22588735996758684e-04 -7.85247165536187282e-04
1.73100000000000000e+10 7.03994673004658752e-05 1.09097248300475439e-04 -1.39661073868551422e-01 3.76479509443373273e-01 -1.39661073868551422e-01 3.76479509443373273e-01 -2.51438332107035381e-04 -6.38847864039695590e-04
1.73200000000000000e+10 -2.15346124360573049e-04 1.11114614767994415e-03 -1.65062788010254292e-02 3.99919658753953022e-01 -1.65062788010254292e-02 3.99919658753953022e-01 -9.56151146505116172e-05 1.01930746416928735e-04
1.73300000000000000e+10 -8.66621702662660515e-04 5.24554174071162140e-05 1.08173007119173284e-01 3.86632983218945514e-01 1.08173007119173284e-01 3.86632983218945514e-01 4.28840798276101519e-04 8.96909250484809748e-04
1.73400000000000000e+10 1.10782183785154567e-03 2.18458026404426235e-03 2.23429561182973302e-01 3.34495029376207287e-01 2.23429561182973302e-01 3.34495029376207287e-01 -1.75327016624351171e-03 -1.88197363413747663e-04
1.73500000000000000e+10 6.78821199844488530e-04 -5.33448471729126850e-04 3.14655478787608855e-01 2.49488311104526295e-01 3.14655478787608855e-01 2.49488311104526295e-01 -7.95234107377598698e-04 6.61630648286709653e-04
1.73600000000000000e+10 -1.81669318831107401e-04 -8.90371273624956288e-04 3.76915339118772508e-01 1.37571634760921380e-01 3.76915339118772508e-01 1.37571634760921380e-01 1.09177395755274623e-04 -1.50316834810630944e-04
1.73700000000000000e+10 -3.30550710826633379e-04 -1.09334757860338129e-03 3.99896155416839927e-01 1.73846233753221051e-02 3.99896155416839927e-01 1.73846233753221051e-02 -1.64002685020997018e-04 2.19980092457802224e-03
1.73800000000000000e+10 -2.35686263230116936e-04 3.77502893574607800e-04 3.84927121849509057e-01 -1.08193649145974735e-01 3.84927121849509057e-01 -1.08193649145974735e-01 -1.19519088130258131e-03 3.36400671252476825e-04
1.73900000000000000e+10 -7.27428604628749969e-04 6.48407830985492156e-04 3.33193909797393217e-01 -2.23784976492387849e-01 3.33193909797393217e-01 -2.23784976492387849e-01 -1.64228561839112547e-03 8.24115959283683677e-04
1.74000000000000000e+10 -7.46540897723033570e-04 6.15092888496406791e-04 2.49464483499298895e-01 -3.14904000342470070e-01 2.49464483499298895e-01 -3.14904000342470070e-01 3.46901954297954397e-04 7.74232261483081847e-04
1.74100000000000000e+10 1.31948989538688212e-03 2.02372428766464966e-04 1.39029176230422324e-01 -3.75697321203067314e-01 1.39029176230422324e-01 -3.75697321203067314e-01 7.22078464599602192e-04 1.78546347126144284e-04
1.74200000000000000e+10 5.14492138182774325e-04 7.65283308448229155e-05 1.49376227306098602e-02 -4.00640039848771279e-01 1.49376227306098602e-02 -4.00640039848771279e-01 1.46301588707567498e-04 -2.32598123010694497e-04
1.74300000000000000e+10 1.06701595108408685e-03 -3.31873072213621190e-05 -1.08889485117232079e-01 -3.85792632827482662e-01 -1.08889485117232079e-01 -3.85792632827482662e-01 -2.30585480042408143e-04 -6.89401553586872708e-04
1.74400000000000000e+10 -6.59118828519777891e-05 6.06083447694298074e-04 -2.21703798466357072e-01 -3.32013729530735213e-01 -2.21703798466357072e-01 -3.32013729530735213e-01 -9.50670875324128965e-04 -1.60017266397724257e-04
1.74500000000000000e+10 1.33333483122747860e-03 -4.17924470741577248e-04 -3.14716341679180833e-01 -2.44795725145097814e-01 -3.14716341679180833e-01 -2.44795725145097814e-01 -1.56436515324860479e-04 5.46997878058948380e-04
1.74600000000000000e+10 -3.61916900067996096e-04 1.45991800274035389e-03 -3.75305137880486195e-01 -1.37685485875720354e-01 -3.75305137880486195e-01 -1.37685485875720354e-01 4.74461096445327917e-05 -1.31204287171126356e-05
1.74700000000000000e+10 2.76520714822992670e-04 1.96908848693711641e-04 -3.99787033614825205e-01 -1.50707769092251389e-02 -3.99787033614825205e-01 -1.50707769092251389e-02 -8.32316821867733420e-04 2.24318207848025455e-04
1.74800000000000000e+10 -4.95173380862432748e-04 -3.10990365211258183e-04 -3.85113870774230260e-01 1.08874531764819718e-01 -3.85113870774230260e-01 1.08874531764819718e-01 -1.05907173604018320e-03 -3.89626792047121425e-04
1.74900000000000000e+10 2.92166926285738170e-04 -2.54329365367479622e-04 -3.31296687066137407e-01 2.22506693885638429e-01 -3.31296687066137407e-01 2.22506693885638429e-01 -1.33158781321420210e-03 -7.54271682230533476e-05
1.75000000000000000e+10 -8.72341398360243991e-04 8.93469281835396960e-04 -2.45638790777315708e-01 3.14975799956171421e-01 -2.45638790777315708e-01 3.14975799956171421e-01 3.69374550227142336e-04 7.82479326094411335e-04
1.75100000000000000e+10 8.74599404506525165e-04 -3.66672796369991831e-04 -1.37673588781729472e-01 3.75798854450274666e-01 -1.37673588781729472e-01 3.75798854450274666e-01 -1.71692235023428977e-03 1.43300671379128857e-03
1.75200000000000000e+10 -1.27285594027266944e-03 1.71610085551345568e-04 -1.40763157893373219e-02 4.00034507216284752e-01 -1.40763157893373219e-02 4.00034507216284752e-01 -9.85352999713790803e-04 1.58059427647384138e-04
1.75300000000000000e+10 1.02267660805478722e-03 -9.01391007181769370e-04 1.09753900577883076e-01 3.84225199406531104e-01 1.09753900577883076e-01 3.84225199406531104e-01 2.74835516562614319e-04 6.83906442844590365e-05
1.75400000000000000e+10 4.19492380859341828e-04 4.13954423728831293e-05 2.23769122360530287e-01 3.30864332965392971e-01 2.23769122360530287e-01 3.30864332965392971e-01 6.26123210447694260e-05 -5.19660175311206438e-04
1.75500000000000000e+10 2.53826311768831094e-04 -1.37149323951396617e-04 3.12955054804571642e-01 2.45591449545677881e-01 3.12955054804571642e-01 2.45591449545677881e-01 -8.42371452204274313e-04 1.31731478523649625e-03
1.75600000000000000e+10 2.90109886693932291e-04 -1.34644362824606380e-03 3.74861876798934124e-01 1.35817020026742258e-01 3.74861876798934124e-01 1.35817020026742258e-01 -3.06376831352460691e-04 4.12300911291612314e-04
1.75700000000000000e+10 -5.82118835802288123e-04 6.57145361305728646e-04 3.98949465331058406e-01 1.45534344471145265e-02 3.98949465331058406e-01 1.45534344471145265e-02 1.30486914566895466e-04 1.03264407377822698e-04
1.75800000000000000e+10 -2.99975962499464583e-04 1.07027486604719914e-04 3.84522161582520061e-01 -1.11423404182706354e-01 3.84522161582520061e-01 -1.11423404182706354e-01 -2.38251462081559546e-04 -6.73434033544150737e-04
1.75900000000000000e+10 -5.37871146748749207e-04 9.55007037649024970e-04 3.31012383369527763e-01 -2.22999935880734912e-01 3.31012383369527763e-01 -2.22999935880734912e-01 -7.03850216148048792e-04 3.01175488611026465e-04
1.76000000000000000e+10 -5.27692167881903544e-04 3.89536265459076330e-04 2.45137283993309640e-01 -3.13333490120903557e-01 2.45137283993309640e-01 -3.13333490120903557e-01 1.17994212653972316e-03 6.68135993102786759e-05
1.76100000000000000e+10 -3.47173904220594441e-04 -5.73246906967082729e-04 1.34171897051912764e-01 -3.74246987114029150e-01 1.34171897051912764e-01 -3.74246987114029150e-01 8.13555790833038689e-04 -3.47243203084461149e-04
1.76200000000000000e+10 -3.63944601973640054e-05 -7.00377860280147974e-04 1.38830724360385904e-02 -3.97345857230771038e-01 1.38830724360385904e-02 -3.97345857230771038e-01 3.41630678925061834e-04 -6.35740967115493681e-04
1.76300000000000000e+10 9.05241196410104532e-04 -5.95601889561217729e-04 -1.10421706931869562e-01 -3.82215569113962983e-01 -1.10421706931869562e-01 -3.82215569113962983e-01 -1.31699447946350833e-03 8.12107502976769130e-04
1.76400000000000000e+10 -8.18318457503760605e-05 7.94724537008395559e-04 -2.22196650075874608e-01 -3.30160283226276108e-01 -2.22196650075874608e-01 -3.30160283226276108e-01 1.24625297311260351e-03 2.50101831368201518e-04
1.76500000000000000e+10 8.42984269007766439e-04 3.49121464414198755e-04 -3.14006737685160076e-01 -2.44257898385519229e-01 -3.14006737685160076e-01 -2.44257898385519229e-01 -8.04509026316133969e-04 -3.36820369046913733e-04
1.76600000000000000e+10 1.09471718255796553e-03 -1.12583876594273577e-03 -3.74923296054318955e-01 -1.33581792644524300e-01 -3.74923296054318955e-01 -1.33581792644524300e-01 -2.99149737093702857e-06 -8.81046461551582565e-04
1.76700000000000000e+10 -1.92732278025823918e-04 1.74590268152116017e-03 -3.97129408473820222e-01 -1.38424330258144247e-02 -3.97129408473820222e-01 -1.38424330258144247e-02 4.13239317515771683e-04 -4.57616929424729932e-04
1.76800000000000000e+10 2.02885635077496452e-03 1.60961736861504607e-03 -3.80733414165774275e-01 1.10075407452896720e-01 -3.80733414165774275e-01 1.10075407452896720e-01 -6.81456202709167068e-05 5.27818248432771744e-04
1.76900000000000000e+10 -2.18253165634205095e-04 -1.85923209802683827e-04 -3.29604813059558133e-01 2.23531910393731936e-01 -3.29604813059558133e-01 2.23531910393731936e-01 5.48655338637849856e-04 -1.24810893603175904e-04
1.77000000000000000e+10 -1.29347213181075973e-03 -2.34755743926933521e-04 -2.44570091590475214e-01 3.13404440006154028e-01 -2.44570091590475214e-01 3.13404440006154028e-01 -9.17974803911424900e-05 -5.17025495414863596e-04
1.77100000000000000e+10 1.42817726866034211e-04 2.52724128742273693e-04 -1.34683054184810441e-01 3.73923936818445213e-01 -1.34683054184810441e-01 3.73923936818445213e-01 4.63020389965606107e-04 -6.89979868341086144e-05
1.77200000000000000e+10 -3.20258297628208506e-04 2.16100696955893979e-04 -1.11258725505028241e-02 3.96625171671349308e-01 -1.11258725505028241e-02 3.96625171671349308e-01 3.19886222400178480e-04 -2.12896845219126855e-04
1.77300000000000000e+10 -2.92169278385301574e-04 -4.54648927880478982e-04 1.10516886639359199e-01 3.81913524199668897e-01 1.10516886639359199e-01 3.81913524199668897e-01 1.28705796348651071e-03 2.30792676292909107e-04
1.77400000000000000e+10 -3.41563650815844869e-04 -9.55164872085885268e-04 2.22433815675515761e-01 3.28149493903748590e-01 2.22433815675515761e-01 3.28149493903748590e-01 4.66159644028255049e-04 7.18077688111454118e-04
1.77500000000000000e+10 -4.29974571236048223e-04 -2.09739671061122868e-04 3.15671843420664344e-01 2.42589814447175478e-01 3.15671843420664344e-01 2.42589814447175478e-01 -3.81123948190842821e-04 -1.06093386188970264e-03
1.77600000000000000e+10 -9.81224045117591896e-04 3.23058672772145322e-04 3.72437242769234511e-01 1.34284659016677965e-01 3.72437242769234511e-01 1.34284659016677965e-01 -1.43379922205601413e-03 9.28901690390144348e-04
1.77700000000000000e+10 5.24493172931492159e-04 -2.68849154141354019e-04 3.97857683324007561e-01 1.13138111781245082e-02 3.97857683324007561e-01 1.13138111781245082e-02 1.81781884737697573e-04 -1.32798258659489582e-03
1.77800000000000000e+10 -2.06835712004870340e-04 -7.72529121101753940e-04 3.79769123981702650e-01 -1.10715718883551778e-01 3.79769123981702650e-01 -1.10715718883551778e-01 5.61602836588513872e-04 1.33528643789217584e-03
1.77900000000000000e+10 -9.12516331626018681e-04 -4.77546858133428762e-04 3.26899366862008267e-01 -2.23931802445705180e-01 3.26899366862008267e-01 -2.23931802445705180e-01 -2.35574180454482796e-04 4.94991602283395755e-04
1.78000000000000000e+10 8.04396569572180301e-04 3.77430653478337736e-06 2.42583469596829360e-01 -3.14664309839275569e-01 2.42583469596829360e-01 -3.14664309839275569e-01 1.03791890168648533e-03 1.46211736067584116e-03
1.78100000000000000e+10 1.67720883849607413e-03 5.21958553874865994e-04 1.32950280610037719e-01 -3.72599947676316323e-01 1.32950280610037719e-01 -3.72599947676316323e-01 1.44886690267335906e-03 7.06357897850055602e-04
1.78200000000000000e+10 1.15158428580683023e-03 1.46594702705894189e-03 1.13096128890693339e-02 -3.96510402634230874e-01 1.13096128890693339e-02 -3.96510402634230874e-01 1.07013780005584718e-03 3.32696672517672086e-04
1.78300000000000000e+10 7.81238988916456716e-04 7.04563985452082847e-04 -1.10622333388120261e-01 -3.80072379017203088e-01 -1.10622333388120261e-01 -3.80072379017203088e-01 -1.80668469099262577e-03 -1.10531754816507600e-04
1.78400000000000000e+10 -6.53157173547350774e-04 5.48324802836912175e-04 -2.24761542388407287e-01 -3.27091383751914433e-01 -2.24761542388407287e-01 -3.27091383751914433e-01 2.24229371231324893e-04 -1.19977610273742436e-04
1.78500000000000000e+10 2.01355726551567051e-04 -1.28799197197461608e-03 -3.14685419630114593e-01 -2.40457271170464310e-01 -3.14685419630114593e-01 -2.40457271170464310e-01 -4.80774799537352559e-04 -2.54609625721661592e-04
1.78600000000000000e+10 1.10289139498019622e-04 -3.97035743200309301e-04 -3.73046712086011978e-01 -1.32291414686627085e-01 -3.73046712086011978e-01 -1.32291414686627085e-01 6.20894160482835725e-06 -8.20717387439507664e-04
1.78700000000000000e+10 -2.93807712273838856e-04 -8.90501277053123855e-05 -3.96373807758002239e-01 -9.79683804455408133e-03 -3.96373807758002239e-01 -9.79683804455408133e-03 4.42301666476014493e-04 3.12653983341602295e-04
1.78800000000000000e+10 -9.62428472209634874e-04 6.18435462214922123e-04 -3.78717256432407279e-01 1.13168739075606900e-01 -3.78717256432407279e-01 1.13168739075606900e-01 1.61728423904356584e-04 -6.17525191662069307e-04
1.78900000000000000e+10 6.73469148915846558e-04 5.11944194908055478e-04 -3.25263372410174778e-01 2.24298622961929872e-01 -3.25263372410174778e-01 2.24298622961929872e-01 -1.08894889942951737e-03 1.24161933285362141e-03
1.79000000000000000e+10 -8.86357878836650207e-04 -1.64213192740421681e-03 -2.42359834832429150e-01 3.13737541183911117e-01 -2.42359834832429150e-01 3.13737541183911117e-01 -1.07191687129727761e-03 -1.73147993312957129e-04
1.79100000000000000e+10 -8.11708553004650279e-04 -3.45003095190622613e-04 -1.31171697929153036e-01 3.72422214040200095e-01 -1.31171697929153036e-01 3.72422214040200095e-01 3.63748207397969242e-04 2.89945953736905589e-04
1.79200000000000000e+10 -1.29485087820748650e-03 3.70062565758471262e-04 -9.55004988843546898e-03 3.94294220497777514e-01 -9.55004988843546898e-03 3.94294220497777514e-01 -4.60298917251936071e-04 9.05623437212707376e-04
1.79300000000000000e+10 1.17121033300345207e-04 2.06099772927378867e-03 1.12572455082762507e-01 3.78736996157223615e-01 1.12572455082762507e-01 3.78736996157223615e-01 -2.20740612859414019e-04 9.03247399165632656e-04
1.79400000000000000e+10 8.41864951619093423e-04 -5.36493798498930471e-04 2.23010071324200781e-01 3.24794597330352874e-01 2.23010071324200781e-01 3.24794597330352874e-01 3.97295021902497052e-04 1.50592313977232652e-04
1.79500000000000000e+10 9.69098985340180810e-04 1.36389048713840685e-03 3.13310076073709975e-01 2.39808985272251168e-01 3.13310076073709975e-01 2.39808985272251168e-01 -4.58330593350038114e-04 -2.69746747012887585e-05
1.79600000000000000e+10 -7.08466034715892639e-04 -4.70734921496475259e-04 3.72462991174641211e-01 1.30455729466382370e-01 3.72462991174641211e-01 1.30455729466382370e-01 2.31608962196553345e-04 7.74616187265861968e-05
1.79700000000000000e+10 2.01440725307735607e-04 9.97981850776875597e-04 3.92907802531441253e-01 1.00840217579772438e-02 3.92907802531441253e-01 1.00840217579772438e-02 1.16134985788310342e-03 8.97222624829904813e-05
1.79800000000000000e+10 6.18884825111819139e-04 -2.18632765824676125e-04 3.77890736650138614e-01 -1.12219553862628441e-01 3.77890736650138614e-01 -1.12219553862628441e-01 3.76061984809035390e-04 -1.34225471897998923e-03
1.79900000000000000e+10 -9.85512678314502894e-04 -1.44369220513739931e-04 3.24779570880047330e-01 -2.24157124646172795e-01 3.24779570880047330e-01 -2.24157124646172795e-01 -5.44344214845192951e-04 1.42799056874340726e-03
1.80000000000000000e+10 2.55249608794449079e-04 -4.26124303460222447e-04 2.38416557900353820e-01 -3.12764548759325967e-01 2.38416557900353820e-01 -3.12764548759325967e-01 -3.48958896810173936e-04 4.70101644066213723e-04
1.80100000000000000e+10 3.45750969827149932e-04 -1.31427168319735144e-03 1.30063412482984753e-01 -3.72194382149080294e-01 1.30063412482984753e-01 -3.72194382149080294e-01 1.03045061015894499e-04 2.42968102471883743e-04
1.80200000000000000e+10 -8.55463280477728897e-05 -1.34790477741261999e-03 9.94456055133124267e-03 -3.94024271178511520e-01 9.94456055133124267e-03 -3.94024271178511520e-01 5.66363170039441686e-04 -6.13395593814030009e-06
1.80300000000000000e+10 1.24948372235867018e-04 -1.23656053085085681e-03 -1.11624299385990028e-01 -3.76778858049405474e-01 -1.11624299385990028e-01 -3.76778858049405474e-01 2.43959031574729322e-04 -6.45297948329520677e-04
1.80400000000000000e+10 -4.35281621433247074e-04 1.51142037020982533e-03 -2.23106806569856708e-01 -3.24982369986540842e-01 -2.23106806569856708e-01 -3.24982369986540842e-01 -2.82186090048134827e-04 3.13973908142389845e-04
1.80500000000000000e+10 -2.69422863139158952e-04 7.27956745805785274e-05 -3.14131538595950666e-01 -2.38942043189869530e-01 -3.14131538595950666e-01 -2.38942043189869530e-01 -1.14021645715793699e-04 1.70923442572586750e-04
1.80600000000000000e+10 5.17959963586069462e-04 -1.53127415267458804e-03 -3.72993430077423083e-01 -1.29009732400795857e-01 -3.72993430077423083e-01 -1.29009732400795857e-01 -9.73902496621913935e-05 -2.64354258691665051e-04
1.80700000000000000e+10 -1.14918604594826642e-03 -7.56324626570648289e-04 -3.92588889766787852e-01 -8.66675928759921312e-03 -3.92588889766787852e-01 -8.66675928759921312e-03 3.96540154044146960e-06 -7.74392337464261445e-04
1.80800000000000000e+10 9.72341726424013003e-04 -5.05302745551307114e-04 -3.76878857283258317e-01 1.13073434749976151e-01 -3.76878857283258317e-01 1.13073434749976151e-01 -1.23091836830177396e-03 -1.41134743125214800e-03
1.80900000000000000e+10 -3.48705279130050280e-04 2.33433263082259847e-04 -3.20689076570344511e-01 2.25862373854549964e-01 -3.20689076570344511e-01 2.25862373854549964e-01 3.08244315245415425e-06 4.59132356895495614e-05
1.81000000000000000e+10 7.59306278208834290e-04 -1.46641578637241401e-03 -2.38420039289997582e-01 3.13732433255625109e-01 -2.38420039289997582e-01 3.13732433255625109e-01 -3.11346850660515170e-04 1.03163349399354611e-04
1.81100000000000000e+10 6.06031949190239468e-04 3.11652301164275312e-04 -1.28269086668473253e-01 3.73148416086456047e-01 -1.28269086668473253e-01 3.73148416086456047e-01 7.81102354440320183e-04 2.48475796867589874e-05
1.81200000000000000e+10 -7.66705869259900184e-04 2.65253146274204950e-04 -9.22587771291542673e-03 3.93433976239221772e-01 -9.22587771291542673e-03 3.93433976239221772e-01 -1.08540189408908657e-03 1.26532260278389933e-03
1.81300000000000000e+10 -5.75146288499728243e-04 -2.54680137275084279e-04 1.13596055973628901e-01 3.76323823294244186e-01 1.13596055973628901e-01 3.76323823294244186e-01 3.19103109295224940e-04 9.89772584190074228e-04
1.81400000000000000e+10 -1.36334689592110649e-03 -7.85916560418512705e-04 2.23521406662056971e-01 3.21159182058312120e-01 2.23521406662056971e-01 3.21159182058312120e-01 1.38955007883469526e-04 1.05445736120289395e-03
1.81500000000000000e+10 -2.79959414890219220e-05 9.79993775719584020e-04 3.12902602446266720e-01 2.36975242682997661e-01 3.12902602446266720e-01 2.36975242682997661e-01 1.23840579231131957e-03 -3.37062042735400774e-06
1.81600000000000000e+10 -7.87746964383030982e-04 -5.90685735353958363e-04 3.71675501085497739e-01 1.28064476053325632e-01 3.71675501085497739e-01 1.28064476053325632e-01 4.72692507130259194e-05 -8.50527025013398589e-04
1.81700000000000000e+10 -2.81329665351883048e-04 2.01530421045540938e-04 3.91922793537039071e-01 9.14885141290546801e-03 3.91922793537039071e-01 9.14885141290546801e-03 -1.27973665738131764e-03 -1.65524139896968065e-03
1.81800000000000000e+10 -9.78908581936882485e-04 -1.16603656232486545e-04 3.75228824184125287e-01 -1.13947464535909287e-01 3.75228824184125287e-01 -1.13947464535909287e-01 -6.63388830237621055e-04 1.97248299205431772e-04
1.81900000000000000e+10 -6.11705324586094912e-04 6.36785146626654892e-04 3.21562030926151654e-01 -2.24559283749696581e-01 3.21562030926151654e-01 -2.24559283749696581e-01 8.50706975217272289e-04 -4.59805834807995389e-04
1.82000000000000000e+10 3.01260882538038389e-04 -6.87482969724640758e-04 2.36358751481865498e-01 -3.14032166863779494e-01 2.36358751481865498e-01 -3.14032166863779494e-01 -7.69088119029157319e-04 5.22109594281212550e-04
1.82100000000000000e+10 -2.30545738909182480e-04 2.20879411880419688e-04 1.28086717350270524e-01 -3.70676338049617415e-01 1.28086717350270524e-01 -3.70676338049617415e-01 -5.87101146721175277e-04 -4.67928505439306995e-04
1.82200000000000000e+10 2.71566623096967518e-04 -8.15026545661767777e-04 6.92368533438736215e-03 -3.92051100641713335e-01 6.92368533438736215e-03 -3.92051100641713335e-01 3.53011823683310549e-04 -7.58234698606117825e-04
1.82300000000000000e+10 2.06145488133363183e-03 -1.03789664689514846e-04 -1.14441164473200310e-01 -3.74443335665658517e-01 -1.14441164473200310e-01 -3.74443335665658517e-01 2.49123399621471514e-04 1.99451094510221623e-03
1.82400000000000000e+10 -2.93916974531932822e-04 3.07536064873025188e-06 -2.24306920938509985e-01 -3.21664155365474880e-01 -2.24306920938509985e-01 -3.21664155365474880e-01 -5.62734428108882610e-04 1.87717073012466391e-03
1.82500000000000000e+10 5.16003839689672787e-05 -1.24818363004778861e-03 -3.14391964332700113e-01 -2.36443428509145015e-01 -3.14391964332700113e-01 -2.36443428509145015e-01 1.21384279367325507e-03 1.15937950294725078e-03
1.82600000000000000e+10 7.26612723900351624e-04 7.83162579810889521e-04 -3.71237398642745409e-01 -1.28560309488681912e-01 -3.71237398642745409e-01 -1.28560309488681912e-01 1.09976583561167333e-03 -3.89874553408102670e-04
1.82700000000000000e+10 1.71314466992294410e-04 2.06870474575969292e-04 -3.91136324408834612e-01 -7.73097353675553014e-03 -3.91136324408834612e-01 -7.73097353675553014e-03 1.04785181964798542e-04 -3.00294667806786264e-04
1.82800000000000000e+10 -1.85849943243214711e-04 2.71794693333401115e-04 -3.73719421951272612e-01 1.14290390895019800e-01 -3.73719421951272612e-01 1.14290390895019800e-01 -2.96404118687846501e-04 -6.36522058729972534e-04
1.82900000000000000e+10 -8.08723847695790965e-04 -1.07047276769485023e-03 -3.19423570110685950e-01 2.25024543510755654e-01 -3.19423570110685950e-01 2.25024543510755654e-01 -8.14776342677222800e-05 7.62047444272222164e-04
1.83000000000000000e+10 6.09141810614609509e-04 -8.11708763286276701e-04 -2.35058450098167143e-01 3.13631775225290954e-01 -2.35058450098167143e-01 3.13631775225290954e-01 5.99712987888534397e-04 7.74040885282575148e-04
1.83100000000000000e+10 -1.25144261753925038e-03 7.27623722562158214e-05 -1.26144818787052276e-01 3.68747917058826813e-01 -1.26144818787052276e-01 3.68747917058826813e-01 2.93950577696785119e-04 8.32705049995762945e-04
1.83200000000000000e+10 -6.24752213010581299e-04 -5.48763079796171262e-04 -5.51162510490733285e-03 3.90856919435359884e-01 -5.51162510490733285e-03 3.90856919435359884e-01 4.72487924048945872e-04 4.86598767902604817e-04
1.83300000000000000e+10 4.93626835942967144e-05 -6.25344147766785361e-04 1.15808406155667579e-01 3.73684188184009392e-01 1.15808406155667579e-01 3.73684188184009392e-01 -5.44562162775625506e-04 9.85109914042669533e-04
1.83400000000000000e+10 -6.85703503531301796e-04 4.28864323556777663e-04 2.24023973861933456e-01 3.19974907145035958e-01 2.24023973861933456e-01 3.19974907145035958e-01 3.65572382999117924e-04 2.11058987894682153e-04
1.83500000000000000e+10 1.49389955132155349e-04 3.94495537699518397e-04 3.11625888098121306e-01 2.34600604991997558e-01 3.11625888098121306e-01 2.34600604991997558e-01 4.65211859190024074e-04 -9.02876617742437058e-05
1.83600000000000000e+10 6.37027904289997563e-04 5.80462243585744159e-05 3.71257262277564060e-01 1.26556676661206208e-01 3.71257262277564060e-01 1.26556676661206208e-01 -2.05160431431185720e-05 -4.37991020101478900e-04
1.83700000000000000e+10 1.11976751333664232e-03 -3.75434370136241112e-04 3.89500069314389963e-01 5.26394589018869263e-03 3.89500069314389963e-01 5.26394589018869263e-03 8.73782527705531105e-04 -1.19533594166001738e-03
1.83800000000000000e+10 7.06895829291470808e-04 -2.22424168617270791e-04 3.72896342731513009e-01 -1.15729175161717032e-01 3.72896342731513009e-01 -1.15729175161717032e-01 5.78017220040948358e-04 1.01197287659208633e-03
1.83900000000000000e+10 -1.50274328045232430e-03 -1.97448539564389937e-04 3.19030580799297470e-01 -2.25344617844874973e-01 3.19030580799297470e-01 -2.25344617844874973e-01 3.03228059015879536e-04 1.31198857939334362e-04
1.84000000000000000e+10 7.18451370172718510e-05 2.29172124462225202e-04 2.34202964196140451e-01 -3.12977886072587086e-01 2.34202964196140451e-01 -3.12977886072587086e-01 5.65629405353487323e-04 1.91979368889792128e-03
1.84100000000000000e+10 -1.01458698239870540e-03 -6.45454129019361117e-04 1.25747439048109505e-01 -3.69191425599910139e-01 1.25747439048109505e-01 -3.69191425599910139e-01 -4.88161251157308252e-04 3.79841566952823621e-04
1.84200000000000000e+10 8.42158123522470975e-04 2.50254464348048070e-04 5.19935498511683684e-03 -3.90766056200030576e-01 5.19935498511683684e-03 -3.90766056200030576e-01 7.23829054312177854e-04 1.31833927642595642e-04
1.84300000000000000e+10 1.77048294888926890e-03 -1.09263120843123676e-04 -1.14969556175444965e-01 -3.73968760885863283e-01 -1.14969556175444965e-01 -3.73968760885863283e-01 -1.53389117714538246e-03 3.94807420510143636e-04
1.84400000000000000e+10 -8.12175420057081507e-04 1.12156012454562638e-03 -2.25279145911750772e-01 -3.18949340193813213e-01 -2.25279145911750772e-01 -3.18949340193813213e-01 2.66831743240804548e-04 9.18428128573734771e-04
1.84500000000000000e+10 1.29133456010360954e-04 -1.57680209697343252e-03 -3.12633347392649474e-01 -2.32963202624067195e-01 -3.12633347392649474e-01 -2.32963202624067195e-01 6.55797626873298668e-04 -5.44290847327857084e-04
1.84600000000000000e+10 -5.38142794400441613e-04 -3.58102711907221007e-04 -3.68904742302755329e-01 -1.24615842144046307e-01 -3.68904742302755329e-01 -1.24615842144046307e-01 -2.63802260131669941e-04 8.81954190833469476e-04
1.84700000000000000e+10 8.00000402783412889e-04 4.63019176277217005e-04 -3.89448086263786297e-01 -4.69635094145433394e-03 -3.89448086263786297e-01 -4.69635094145433394e-03 -7.25459696533091534e-04 -8.12712571838842385e-04
1.84800000000000000e+10 -7.24113448116239615e-04 -3.46925472764638137e-04 -3.70365338018688706e-01 1.15754918354871797e-01 -3.70365338018688706e-01 1.15754918354871797e-01 4.97467203314884703e-04 2.30837159825749029e-04
1.84900000000000000e+10 5.84284535051934743e-04 -8.38876384948731213e-05 -3.17903837868428518e-01 2.25475665108410966e-01 -3.17903837868428518e-01 2.25475665108410966e-01 -2.46612305865144088e-04 4.57017289245667665e-04
1.85000000000000000e+10 -1.48824405880014976e-03 2.16792856745273000e-04 -2.31657599508762635e-01 3.12024239700551043e-01 -2.31657599508762635e-01 3.12024239700551043e-01 1.60189213644640818e-05 -4.25057273335863376e-05
1.85100000000000000e+10 8.58782292812333291e-04 -5.58368116308409360e-04 -1.23179847137125431e-01 3.70026899873829473e-01 -1.23179847137125431e-01 3.70026899873829473e-01 1.08406467719635095e-04 5.38269138933121375e-04
1.85200000000000000e+10 3.23916157910783347e-04 -9.03149719395470504e-04 -3.17692673270050362e-03 3.87849831840668791e-01 -3.17692673270050362e-03 3.87849831840668791e-01 -2.54735717665013212e-04 -4.69055108492768874e-04
1.85300000000000000e+10 6.53277701977337979e-04 -3.51073529263623086e-04 1.15201546837715302e-01 3.71662632459105746e-01 1.15201546837715302e-01 3.71662632459105746e-01 4.26849180457844067e-04 1.81529495333854966e-03
1.85400000000000000e+10 -1.84433177407937828e-04 -3.07675182151217433e-04 2.25673365375610391e-01 3.16502690914493012e-01 2.25673365375610391e-01 3.16502690914493012e-01 -7.31516741664264922e-04 -3.43861451962265132e-04
1.85500000000000000e+10 -5.91628947446120983e-04 -3.43095055422322948e-04 3.11980752920944238e-01 2.30509828635771269e-01 3.11980752920944238e-01 2.30509828635771269e-01 -1.72513577789855504e-05 -1.77221666385594197e-04
1.85600000000000000e+10 -5.94403620156884580e-04 -6.93380797286001927e-05 3.67546616324455677e-01 1.23704579909443058e-01 3.67546616324455677e-01 1.23704579909443058e-01 1.43405294651923333e-03 1.53640241109145566e-03
1.85700000000000000e+10 4.35770888913297662e-04 3.51081602414426606e-04 3.87991912301219877e-01 3.64760941732181470e-03 3.87991912301219877e-01 3.64760941732181470e-03 -2.68645242769432948e-04 4.43862469243845657e-04
1.85800000000000000e+10 -7.67925713144178453e-05 -8.84905455191174154e-05 3.70905851660156716e-01 -1.16876086196578188e-01 3.70905851660156716e-01 -1.16876086196578188e-01 -6.95351808574986457e-04 -9.19780643209102767e-04
1.85900000000000000e+10 -5.28155058737371508e-04 5.13067799107875004e-04 3.16738478928549838e-01 -2.25318733191524040e-01 3.16738478928549838e-01 -2.25318733191524040e-01 1.90929101877707346e-03 -7.08412849470078649e-05
1.86000000000000000e+10 5.17182934081481796e-04 -3.65102624888877204e-04 2.30893355095629749e-01 -3.13302490016720503e-01 2.30893355095629749e-01 -3.13302490016720503e-01 -9.44741214531517252e-04 8.50405050905911689e-04
1.86100000000000000e+10 4.36700371478396373e-04 4.27653066372970440e-04 1.22164983513367340e-01 -3.67935391769541598e-01 1.22164983513367340e-01 -3.67935391769541598e-01 7.00071958800152906e-04 2.72665787056151215e-04
1.86200000000000000e+10 -1.26451343655009424e-04 5.05518739862281406e-04 2.48164305880027277e-03 -3.87559936481244427e-01 2.48164305880027277e-03 -3.87559936481244427e-01 8.82545104227568621e-04 -1.24963284406734605e-03
1.86300000000000000e+10 -1.27173507971701930e-04 -4.89063615911979055e-04 -1.17620225714510904e-01 -3.70536560241996271e-01 -1.17620225714510904e-01 -3.70536560241996271e-01 1.53649944158774050e-05 3.61901876837608628e-04
1.86400000000000000e+10 1.61557397064956282e-03 -4.83857788061409721e-04 -2.25460607063160623e-01 -3.15031963495944534e-01 -2.25460607063160623e-01 -3.15031963495944534e-01 1.49480872843185572e-04 -3.41660006788758336e-04
1.86500000000000000e+10 -1.26386668128233718e-03 6.24980008388792722e-04 -3.11007113718337003e-01 -2.29878678859712471e-01 -3.11007113718337003e-01 -2.29878678859712471e-01 -9.50950563061237820e-04 -4.56218726024381770e-04
1.86600000000000000e+10 7.62428987178333408e-05 -1.67573434616914604e-04 -3.68177480483267150e-01 -1.21216622512073449e-01 -3.68177480483267150e-01 -1.21216622512073449e-01 -1.43025380240589913e-05 7.59603573579490841e-04
1.86700000000000000e+10 3.22235143007920398e-06 4.94205904278475724e-04 -3.88725143167266751e-01 -2.43545732204189644e-03 -3.88725143167266751e-01 -2.43545732204189644e-03 -1.24497886584785781e-04 3.19548349379883976e-04
1.86800000000000000e+10 -7.17044533924972934e-04 -1.06409890512293263e-04 -3.70278115469211022e-01 1.17356924742387458e-01 -3.70278115469211022e-01 1.17356924742387458e-01 -1.87947183999646189e-04 2.07923373528553785e-04
1.86900000000000000e+10 7.22501279979481941e-04 7.07183804810217502e-04 -3.14661760120501233e-01 2.25764303097567204e-01 -3.14661760120501233e-01 2.25764303097567204e-01 -5.60847381924680635e-04 4.45606606575285960e-04
1.87000000000000000e+10 6.94205445362170250e-04 -2.89429338438698029e-04 -2.28264862001471253e-01 3.10876974101021497e-01 -2.28264862001471253e-01 3.10876974101021497e-01 -9.94390406742294737e-04 -8.23085200385020410e-04
1.87100000000000000e+10 -1.02119666594691527e-03 -3.10845599335100072e-04 -1.20439829976059079e-01 3.68258764987532627e-01 -1.20439829976059079e-01 3.68258764987532627e-01 -4.48742216706906943e-04 4.48555797432857218e-04
1.87200000000000000e+10 6.19191889303098990e-04 -9.78846258488693245e-05 -2.55294235162532293e-03 3.87195419134946262e-01 -2.55294235162532293e-03 3.87195419134946262e-01 2.59199358625260235e-04 5.53904655134627674e-04
1.87300000000000000e+10 4.77142612154310051e-04 -5.64379474035623632e-04 1.16811320035683563e-01 3.68615111042669974e-01 1.16811320035683563e-01 3.68615111042669974e-01 8.73010155981153902e-04 -1.27840621894566438e-04
1.87400000000000000e+10 -5.41238753287842894e-04 -1.18857042837821518e-03 2.26004702515087363e-01 3.14866428583113200e-01 2.26004702515087363e-01 3.14866428583113200e-01 -3.06802035807312960e-04 8.84300537112469491e-04
1.87500000000000000e+10 3.09401047694699374e-04 3.52958727073727292e-04 3.12399033917363511e-01 2.29508023255077298e-01 3.12399033917363511e-01 2.29508023255077298e-01 -6.15611405851999535e-04 6.80835429163329409e-04
1.87600000000000000e+10 8.53147904893120242e-04 7.34243830363886033e-04 3.67202286948920875e-01 1.21205547675794209e-01 3.67202286948920875e-01 1.21205547675794209e-01 2.77708298863412850e-04 8.81205414352708615e-05
1.87700000000000000e+10 4.74539993483281378e-04 -1.35918804252647138e-03 3.86480751786140386e-01 2.10880135865025705e-03 3.86480751786140386e-01 2.10880135865025705e-03 1.83755995885267229e-06 -3.53703074862171121e-04
1.87800000000000000e+10 6.27876352120565646e-04 -1.16474255431392101e-03 3.67158018981089296e-01 -1.18425424155964742e-01 3.67158018981089296e-01 -1.18425424155964742e-01 -1.86297210598176981e-04 2.73046470187847954e-04
1.87900000000000000e+10 1.51805254616697795e-03 2.45151245856616625e-04 3.13086531893480402e-01 -2.26239227506717350e-01 3.13086531893480402e-01 -2.26239227506717350e-01 1.16492064979739391e-03 2.53735325606420592e-05
1.88000000000000000e+10 8.98294057587553868e-04 -1.62727375325247411e-03 2.29013946010210245e-01 -3.10865256542818880e-01 2.29013946010210245e-01 -3.10865256542818880e-01 7.19842112614467499e-04 -2.01604561078433473e-03
1.88100000000000000e+10 -6.43085511896742876e-05 -4.99498450859833104e-04 1.20715184780627371e-01 -3.66077447964595071e-01 1.20715184780627371e-01 -3.66077447964595071e-01 1.14342005440385992e-03 3.02934986100052969e-05
1.88200000000000000e+10 -1.05264754693678089e-03 -4.96429991265474055e-04 2.07534260852390573e-03 -3.86084911361517236e-01 2.07534260852390573e-03 -3.86084911361517236e-01 -1.76358665473845295e-04 -4.23577189877007360e-04
1.88300000000000000e+10 1.26627613129646913e-03 7.09589807849977721e-04 -1.17190935243814881e-01 -3.67863660132652426e-01 -1.17190935243814881e-01 -3.67863660132652426e-01 5.85289574021588739e-04 1.77658508704133531e-04
1.88400000000000000e+10 7.66973922245413071e-04 1.38315823147934004e-04 -2.26657145825019612e-01 -3.13831738563407514e-01 -2.26657145825019612e-01 -3.13831738563407514e-01 5.69088795979907783e-04 -7.88913094390024145e-04
1.88500000000000000e+10 3.58441643509353259e-04 -8.37876576372727322e-06 -3.11155199541842120e-01 -2.28497741108472430e-01 -3.11155199541842120e-01 -2.28497741108472430e-01 1.15535943110383829e-03 1.29894574089886957e-04
1.88600000000000000e+10 -4.83830183759692414e-06 -1.16492345661736675e-03 -3.67229326507948983e-01 -1.20262087849725113e-01 -3.67229326507948983e-01 -1.20262087849725113e-01 -1.94220695388334399e-05 -9.54044739684435259e-04
1.88700000000000000e+10 2.04511107108766891e-04 -1.60962976129264135e-03 -3.86028228300494658e-01 2.55867476243340020e-04 -3.86028228300494658e-01 2.55867476243340020e-04 3.32779639943107518e-04 -1.19189131965210756e-03
1.88800000000000000e+10 3.38688058411205093e-04 -8.16630693815721177e-04 -3.67085019261337686e-01 1.18785157725534524e-01 -3.67085019261337686e-01 1.18785157725534524e-01 1.00103750440694609e-03 8.81507031740386485e-04
1.88900000000000000e+10 -6.33906319673681893e-04 -5.99579491869447556e-04 -3.11609303118070724e-01 2.27088978324480828e-01 -3.11609303118070724e-01 2.27088978324480828e-01 2.91871537644746619e-04 -8.94571331633529270e-04
1.89000000000000000e+10 -2.48936607433809256e-04 5.88358583209987337e-04 -2.26406693396438569e-01 3.12221017691105274e-01 -2.26406693396438569e-01 3.12221017691105274e-01 -1.53933460036934588e-03 -5.30602388900007277e-04
1.89100000000000000e+10 2.72226679578757016e-04 1.35309814523344431e-04 -1.18899535942150122e-01 3.65830919378406227e-01 -1.18899535942150122e-01 3.65830919378406227e-01 -5.05989641820359009e-05 -7.95742437540232668e-04
1.89200000000000000e+10 -1.19414092758096436e-05 -4.89242161652206787e-04 -7.63228662631321468e-04 3.85212580123745985e-01 -7.63228662631321468e-04 3.85212580123745985e-01 -8.69026824852690448e-04 4.19066981629834888e-05
1.89300000000000000e+10 -8.32484753444016033e-04 -1.43601111452467561e-03 1.18859681877748855e-01 3.65941070227620846e-01 1.18859681877748855e-01 3.65941070227620846e-01 -1.20235946029114576e-03 -2.08707624212559015e-05
1.89400000000000000e+10 -5.51156563230513464e-04 1.62090143676380709e-03 2.27080986935383256e-01 3.12070724875798011e-01 2.27080986935383256e-01 3.12070724875798011e-01 -2.84080641946525645e-04 8.23164480568454939e-05
1.89500000000000000e+10 -9.66766440279484725e-04 -1.49447301903324911e-04 3.12495220441315780e-01 2.25300731184332442e-01 3.12495220441315780e-01 2.25300731184332442e-01 -4.77090646942460270e-04 -8.94904138880895034e-04
1.89600000000000000e+10 -7.30257010944080276e-04 6.29282061652719493e-04 3.65453519761082979e-01 1.19265752568521941e-01 3.65453519761082979e-01 1.19265752568521941e-01 7.53523192537237756e-04 1.36166121487638439e-03
1.89700000000000000e+10 4.56487915439707432e-06 -2.73201687451664484e-04 3.84730179631257385e-01 5.21019479287004026e-04 3.84730179631257385e-01 5.21019479287004026e-04 4.09658086506820398e-04 -9.15749980534870485e-06
1.89800000000000000e+10 -6.73754492359178453e-05 -3.12601988428918057e-04 3.65869644029414798e-01 -1.18664062764497411e-01 3.65869644029414798e-01 -1.18664062764497411e-01 -6.29842347788993708e-04 -4.35326981448906899e-05
1.89900000000000000e+10 2.41712208276710974e-04 -3.21492992019281761e-04 3.10100467539856040e-01 -2.25416235088940431e-01 3.10100467539856040e-01 -2.25416235088940431e-01 4.76137726205310430e-05 -3.46446846897028454e-04
1.90000000000000000e+10 -1.19580739510184155e-03 7.98988745600526240e-04 2.25617360232704900e-01 -3.10510910042887722e-01 2.25617360232704900e-01 -3.10510910042887722e-01 7.83439456752678572e-04 2.57201023457949809e-04
1.90100000000000000e+10 2.89990156073278603e-04 -5.03530472800307991e-04 1.18018251889878870e-01 -3.66504474760671717e-01 1.18018251889878870e-01 -3.66504474760671717e-01 -4.04101449402120280e-05 -1.10281487555936408e-03
1.90200000000000000e+10 -2.04970852036940498e-04 8.05139262729128564e-04 -2.57742225910654980e-03 -3.84720983858082566e-01 -2.57742225910654980e-03 -3.84720983858082566e-01 6.40083462886210106e-04 -4.74924512431751757e-04
1.90300000000000000e+10 3.46453074233526971e-04 1.61758063045078264e-04 -1.20334830641699392e-01 -3.65020425962253536e-01 -1.20334830641699392e-01 -3.65020425962253536e-01 -6.12847351746671336e-05 -4.97457608670619418e-04
1.90400000000000000e+10 8.40624783032884186e-04 -6.16764834114714940e-05 -2.27531183382870206e-01 -3.09756862276725775e-01 -2.27531183382870206e-01 -3.09756862276725775e-01 2.93855552478987023e-06 1.70290737504949627e-03
1.90500000000000000e+10 4.15754261760255999e-04 -3.34933994784660720e-04 -3.11918742878005140e-01 -2.24629372893974361e-01 -3.11918742878005140e-01 -2.24629372893974361e-01 3.90850695717930735e-04 9.33224945803093770e-05
1.90600000000000000e+10 -6.43123409970665382e-04 6.92125177757883857e-04 -3.64725011212187644e-01 -1.16360077779583432e-01 -3.64725011212187644e-01 -1.16360077779583432e-01 -2.85403534241348796e-04 -4.12805287782889128e-04
1.90700000000000000e+10 -6.09653326673968731e-04 -1.02344442670401184e-03 -3.83645509703266996e-01 2.14105002878404484e-03 -3.83645509703266996e-01 2.14105002878404484e-03 -1.27419173694571391e-03 1.10788950090268991e-03
1.90800000000000000e+10 -1.40153270741567740e-04 1.37579714189548869e-04 -3.64671884645569877e-01 1.19592866888093813e-01 -3.64671884645569877e-01 1.19592866888093813e-01 1.40185600524583387e-03 -8.86545051703374522e-04
1.90900000000000000e+10 4.21680175501441140e-04 -3.23750742465332578e-04 -3.08706566645978453e-01 2.26496464013522525e-01 -3.08706566645978453e-01 2.26496464013522525e-01 -5.42500772743422649e-04 -8.33564060819920894e-04
1.91000000000000000e+10 -8.12668168103825137e-04 -5.38079694647732249e-04 -2.25219860228353080e-01 3.10211151013831399e-01 -2.25219860228353080e-01 3.10211151013831399e-01 4.78948290885890607e-04 -1.01228080981774753e-03
1.91100000000000000e+10 -6.96782433003866877e-04 -3.22618003312692182e-04 -1.17798539872635569e-01 3.65077126539385233e-01 -1.17798539872635569e-01 3.65077126539385233e-01 7.33338192270233309e-04 7.37513497352647427e-04
1.91200000000000000e+10 6.67202436156588263e-04 2.97036007122874969e-04 1.49204933184987230e-03 3.84130187398277034e-01 1.49204933184987230e-03 3.84130187398277034e-01 -2.69419934207872048e-04 1.38823799973385355e-04
1.91300000000000000e+10 -1.20378178627006746e-04 4.68508854480486985e-04 1.19675447925424325e-01 3.64435372037338778e-01 1.19675447925424325e-01 3.64435372037338778e-01 -6.82969842152868884e-04 3.73210558001447579e-04
1.91400000000000000e+10 1.05267727765831777e-04 -9.11847404429016453e-04 2.26838055806177274e-01 3.09606651513100073e-01 2.26838055806177274e-01 3.09606651513100073e-01 -6.33387171225618007e-04 2.37317016013021033e-04
1.91500000000000000e+10 6.71451870652620738e-04 -7.42512262481212298e-04 3.12596556872349107e-01 2.22774753485424359e-01 3.12596556872349107e-01 2.22774753485424359e-01 -6.87082399559562186e-04 5.17825196806665877e-04
1.91600000000000000e+10 -2.06418794537919576e-04 4.24291162120900723e-04 3.63361697842081222e-01 1.16487266176866403e-01 3.63361697842081222e-01 1.16487266176866403e-01 7.21196844476506638e-04 -9.26568398912646523e-04
1.91700000000000000e+10 -1.00493977109636606e-03 2.33978175640518082e-04 3.82872448005964039e-01 -6.91746390654139056e-04 3.82872448005964039e-01 -6.91746390654139056e-04 3.98438046782369790e-04 4.59629882002391939e-04
1.91800000000000000e+10 5.40310618255032465e-04 1.25205375091857313e-03 3.62463186990563624e-01 -1.21357873263728738e-01 3.62463186990563624e-01 -1.21357873263728738e-01 -5.70442922854832264e-04 -1.77888981055365574e-03
1.91900000000000000e+10 -2.25826023117825053e-04 -1.05932031642478166e-03 3.06978195821798250e-01 -2.26094984999994003e-01 3.06978195821798250e-01 -2.26094984999994003e-01 -5.20746679517528717e-04 1.27721246927792794e-03
1.92000000000000000e+10 3.69026555693171112e-04 -5.79621160171131782e-04 2.23491512539940262e-01 -3.11100256850212809e-01 2.23491512539940262e-01 -3.11100256850212809e-01 -9.47149228395836418e-04 2.16277513772857038e-04
1.92100000000000000e+10 -6.87296919455824737e-04 -1.35363487704617981e-04 1.15095272480866637e-01 -3.64442121744539160e-01 1.15095272480866637e-01 -3.64442121744539160e-01 8.73549131277826440e-04 1.87245174806111806e-04
1.92200000000000000e+10 -4.82492270853021057e-04 8.59378311228137335e-05 -2.71728147852020154e-03 -3.82731444964321099e-01 -2.71728147852020154e-03 -3.82731444964321099e-01 7.56097523681873644e-04 7.70765266718054188e-04
1.92300000000000000e+10 4.40989470066762671e-04 7.73753186157364985e-04 -1.20396620588623757e-01 -3.63123283815079800e-01 -1.20396620588623757e-01 -3.63123283815079800e-01 8.27663040126568050e-04 3.70976223716803892e-04
1.92400000000000000e+10 -1.25887085038066003e-03 6.13112122251828961e-04 -2.26851179352712706e-01 -3.07301772615564128e-01 -2.26851179352712706e-01 -3.07301772615564128e-01 1.08557644156942004e-04 4.64618576452654544e-06
1.92500000000000000e+10 -4.87272366981395541e-04 7.16684847459818884e-04 -3.10252864057458555e-01 -2.22222550153882287e-01 -3.10252864057458555e-01 -2.22222550153882287e-01 8.38916634620574071e-04 -1.77716530411730749e-04
1.92600000000000000e+10 -4.47056955942703343e-04 1.02146017915017697e-03 -3.65401541261161311e-01 -1.14851054426676771e-01 -3.65401541261161311e-01 -1.14851054426676771e-01 -2.00554984341232015e-03 2.29129748839406399e-04
1.92700000000000000e+10 1.39937440633716823e-03 -7.86588374940868675e-04 -3.82382858367886380e-01 3.30940514528154208e-03 -3.82382858367886380e-01 3.30940514528154208e-03 1.82367566972048368e-04 9.28339186775362676e-04
1.92800000000000000e+10 4.51470078524782653e-06 8.83761923013543253e-04 -3.61072190320563535e-01 1.21551122089106400e-01 -3.61072190320563535e-01 1.21551122089106400e-01 -1.03948030487126817e-03 -7.21696072869091590e-04
1.92900000000000000e+10 -1.90460660074683215e-04 1.74978746565013221e-03 -3.07457915904420009e-01 2.27452452581909187e-01 -3.07457915904420009e-01 2.27452452581909187e-01 -3.63117527063109777e-04 4.75412868569186227e-04
1.93000000000000000e+10 -8.09787167102146428e-04 -7.68354450305557663e-04 -2.22277920857091721e-01 3.10740666960451106e-01 -2.22277920857091721e-01 3.10740666960451106e-01 1.21681501886842513e-04 3.11915332772840219e-04
1.93100000000000000e+10 7.86967976580080789e-05 -7.18129153371070044e-04 -1.15371104275514794e-01 3.64196973852043859e-01 -1.15371104275514794e-01 3.64196973852043859e-01 -1.52953121954729136e-04 -5.16123257282858922e-04
1.93200000000000000e+10 -7.78455742575234538e-04 1.45475868218753433e-03 4.17683907848184158e-03 3.80881216254680632e-01 4.17683907848184158e-03 3.80881216254680632e-01 5.41144640392338030e-04 3.88830977380152237e-04
1.93300000000000000e+10 7.82364107953912430e-04 1.01340658264982846e-03 1.21235883748533377e-01 3.61119600540247498e-01 1.21235883748533377e-01 3.61119600540247498e-01 -4.41568563311914785e-04 -5.33038544698988931e-04
1.93400000000000000e+10 -2.44332096519156922e-05 -3.33149983119300518e-04 2.26866232843650789e-01 3.07133351925048870e-01 2.26866232843650789e-01 3.07133351925048870e-01 -1.16369630137579794e-05 -8.61479348410414922e-05
1.93500000000000000e+10 -3.82833679675341140e-04 3.56296092453251521e-04 3.09867979813694960e-01 2.21896245526745362e-01 3.09867979813694960e-01 2.21896245526745362e-01 1.70671233483291355e-04 2.68637733361231615e-04
1.93600000000000000e+10 5.84305293231965209e-04 -5.22774177801063090e-04 3.64158270757405034e-01 1.12728320979060104e-01 3.64158270757405034e-01 1.12728320979060104e-01 -8.53687306096981313e-04 -1.35866392206641679e-04
1.93700000000000000e+10 9.29996692493198084e-04 2.84987759119841315e-04 3.79781003781581694e-01 -3.64209899305629331e-03 3.79781003781581694e-01 -3.64209899305629331e-03 -4.84556319953204963e-04 -1.20466241612557736e-03
1.93800000000000000e+10 6.91617629608020778e-05 -8.38059348288141106e-04 3.60976672495138706e-01 -1.21820949738461928e-01 3.60976672495138706e-01 -1.21820949738461928e-01 -2.17045562902353059e-04 1.32583268694432877e-03
1.93900000000000000e+10 -3.52605385623623829e-04 -3.25225956776053354e-04 3.05248256942225016e-01 -2.26519756446989406e-01 3.05248256942225016e-01 -2.26519756446989406e-01 7.17257156874040133e-04 1.11169699383557039e-03
1.94000000000000000e+10 7.62856433585723764e-04 4.01120884884069862e-04 2.20268731333640694e-01 -3.09641416279912762e-01 2.20268731333640694e-01 -3.09641416279912762e-01 -7.21943578411016087e-04 -1.10110784909960642e-03
1.94100000000000000e+10 4.42127482884052030e-04 1.52097640356906494e-03 1.14328675506053634e-01 -3.63826095228597768e-01 1.14328675506053634e-01 -3.63826095228597768e-01 5.09398307344869163e-04 6.70923947391911097e-05
1.94200000000000000e+10 -4.69715154971409780e-04 3.31401057127865420e-04 -4.88443883685377601e-03 -3.78855834291209781e-01 -4.88443883685377601e-03 -3.78855834291209781e-01 9.65772304558932052e-04 1.68382177965545115e-03
1.94300000000000000e+10 2.15003924184035576e-04 2.90728395430298178e-04 -1.22756545467851919e-01 -3.59900255053247020e-01 -1.22756545467851919e-01 -3.59900255053247020e-01 8.99176386598776007e-04 3.90777004174592071e-04
1.94400000000000000e+10 -3.58442612477753839e-04 7.24352269767429904e-04 -2.26225751295008298e-01 -3.04798162822562169e-01 -2.26225751295008298e-01 -3.04798162822562169e-01 1.74245583457237883e-03 -2.48718376145569430e-04
1.94500000000000000e+10 1.12666255703255599e-03 -4.77644384661168691e-04 -3.09911917097494383e-01 -2.19617245278607487e-01 -3.09911917097494383e-01 -2.19617245278607487e-01 6.78508376532736715e-05 -6.90313319688727655e-04
1.94600000000000000e+10 -9.60774962055679438e-04 -1.13557907564329486e-03 -3.63545137038792820e-01 -1.13217713392274141e-01 -3.63545137038792820e-01 -1.13217713392274141e-01 -7.66819974736474117e-04 5.36973249529192282e-04
1.94700000000000000e+10 -3.64546579135426236e-04 6.41402328118420247e-04 -3.79790677812407496e-01 5.91278957853671929e-03 -3.79790677812407496e-01 5.91278957853671929e-03 -3.44330216971477248e-04 -5.95777181543475699e-04
1.94800000000000000e+10 6.40212208746776946e-04 5.36814038681392115e-04 -3.60305828901178349e-01 1.22668443555079082e-01 -3.60305828901178349e-01 1.22668443555079082e-01 3.62782590623509976e-04 -1.26350232901693491e-03
1.94900000000000000e+10 8.40447019023990525e-04 9.69203556875549441e-04 -3.04707979346275415e-01 2.27674112576472104e-01 -3.04707979346275415e-01 2.27674112576472104e-01 -8.77095711387450592e-05 1.24274850615840415e-03
1.95000000000000000e+10 -6.87322536787321383e-04 -2.45858031043659779e-04 -2.19402608048592601e-01 3.10441621910930776e-01 -2.19402608048592601e-01 3.10441621910930776e-01 1.55381159889777859e-04 4.45170304003906733e-04
1.95100000000000000e+10 1.50677350993234959e-04 -3.17478332253635139e-04 -1.11555862296011887e-01 3.61859848343592583e-01 -1.11555862296011887e-01 3.61859848343592583e-01 -5.24513758415151208e-04 -3.36337679193418506e-06
1.95200000000000000e+10 1.46471959825026764e-04 -1.26150397076963547e-05 6.01437111379964171e-03 3.80988990438784703e-01 6.01437111379964171e-03 3.80988990438784703e-01 -8.13019309815531333e-05 7.50759410601495119e-04
1.95300000000000000e+10 1.85937677860632648e-04 -1.62293315126514360e-04 1.21554738428526501e-01 3.58084537411155202e-01 1.21554738428526501e-01 3.58084537411155202e-01 -6.73791337587484199e-04 -2.16863435741461956e-04
1.95400000000000000e+10 8.17041281431726027e-04 -4.67984713884762350e-04 2.26387195525040719e-01 3.02580945930825351e-01 2.26387195525040719e-01 3.02580945930825351e-01 -1.32020954670618133e-03 1.52444946608062178e-04
1.95500000000000000e+10 8.02561166435983569e-05 -7.28187634007166468e-04 3.09174396585700784e-01 2.17523774505935352e-01 3.09174396585700784e-01 2.17523774505935352e-01 1.05955284140264749e-03 -1.22224858790496440e-04
1.95600000000000000e+10 8.89933939247936133e-04 -1.12627843294497748e-03 3.61943059841023540e-01 1.12012309251278142e-01 3.61943059841023540e-01 1.12012309251278142e-01 7.34680066114135738e-05 6.54807655303007476e-04
1.95700000000000000e+10 -6.72215947835595805e-04 -5.06704951410826701e-05 3.77683616919747278e-01 -5.09110158983999000e-03 3.77683616919747278e-01 -5.09110158983999000e-03 1.78102613358172083e-04 2.25045487528181804e-04
1.95800000000000000e+10 -1.09486387389346710e-03 -2.78181145633031905e-04 3.59004342463103143e-01 -1.23223777102505233e-01 3.59004342463103143e-01 -1.23223777102505233e-01 1.03674264798806317e-03 1.63212740726919009e-03
1.95900000000000000e+10 2.25566217642034564e-04 -7.49326471451597842e-04 3.03949844751444653e-01 -2.29023874275506995e-01 3.03949844751444653e-01 -2.29023874275506995e-01 -7.91846639400733905e-05 -4.67189222824571202e-04
1.96000000000000000e+10 5.70944470007001188e-04 5.42753906932735603e-04 2.18244681168056925e-01 -3.10492238859740810e-01 2.18244681168056925e-01 -3.10492238859740810e-01 -2.97509354987219796e-04 -1.10631205842006097e-04
1.96100000000000000e+10 3.99331133802048165e-04 -8.37491122566760230e-04 1.11080278384252357e-01 -3.62852761190717854e-01 1.11080278384252357e-01 -3.62852761190717854e-01 -1.10595265388518872e-03 7.93777533649328313e-06
1.96200000000000000e+10 -5.61792004874844863e-04 -1.72765996684290726e-03 -6.96267717507119844e-03 -3.80184396042089867e-01 -6.96267717507119844e-03 -3.80184396042089867e-01 -6.93109658357015084e-04 3.97723276794479481e-04
1.96300000000000000e+10 -5.56357892975893912e-04 4.28906768467009539e-04 -1.22348977209472687e-01 -3.57914546656533439e-01 -1.22348977209472687e-01 -3.57914546656533439e-01 -4.81259594916903333e-04 1.61758692346294117e-03
1.96400000000000000e+10 3.44068267267026652e-04 7.47072766000185799e-05 -2.26611849277614769e-01 -3.01910990139100943e-01 -2.26611849277614769e-01 -3.01910990139100943e-01 -7.33227738071361520e-05 6.55496801192086078e-04
1.96500000000000000e+10 -3.52618710996692203e-04 -1.18033370784897821e-03 -3.09816463586778224e-01 -2.17129939449267700e-01 -3.09816463586778224e-01 -2.17129939449267700e-01 -1.27021723884053017e-03 -1.65570127944316520e-04
1.96600000000000000e+10 -5.79603755940213028e-04 2.05130493453472239e-04 -3.61761050958503472e-01 -1.11437464326274424e-01 -3.61761050958503472e-01 -1.11437464326274424e-01 -1.56129506056015333e-03 1.46040389666615521e-04
1.96700000000000000e+10 8.84238896274810201e-04 -1.41764328630819829e-04 -3.77776223368128605e-01 7.46933483781932889e-03 -3.77776223368128605e-01 7.46933483781932889e-03 8.99058699829371967e-04 2.40360246807998202e-04
1.96800000000000000e+10 -3.27292683455709260e-04 1.94992967408198531e-04 -3.57457074443766232e-01 1.25673491914383706e-01 -3.57457074443766232e-01 1.25673491914383706e-01 6.61437980896567167e-04 1.33238988681353256e-03
1.96900000000000000e+10 1.30958791736785580e-03 2.82161809246860777e-04 -3.00982830151710234e-01 2.28583382955751369e-01 -3.00982830151710234e-01 2.28583382955751369e-01 3.66776591695891962e-04 6.21774078174998945e-06
1.97000000000000000e+10 1.22134697113726273e-03 3.82999683401634623e-04 -2.15673653105890983e-01 3.09747209194958462e-01 -2.15673653105890983e-01 3.09747209194958462e-01 -1.45920695559062573e-03 1.00017061991340196e-03
1.97100000000000000e+10 2.33979875784383535e-04 7.70968420221986028e-04 -1.09723844537241197e-01 3.60624432823726637e-01 -1.09723844537241197e-01 3.60624432823726637e-01 4.67643285144647214e-04 -1.17072489544144901e-03
1.97200000000000000e+10 4.55090195963695420e-04 -2.47499676587341637e-04 7.17989007394050083e-03 3.78283057651714716e-01 7.17989007394050083e-03 3.78283057651714716e-01 1.13732200625956970e-04 -2.10838269455145970e-04
1.97300000000000000e+10 -6.78909139383811243e-04 -1.62927219657372797e-04 1.24284248418661647e-01 3.56512570374734883e-01 1.24284248418661647e-01 3.56512570374734883e-01 2.11157416754224363e-05 4.29029050690696312e-04
1.97400000000000000e+10 -6.14578715677143264e-05 5.26654202026843052e-04 2.28948956488815497e-01 3.00111748072630968e-01 2.28948956488815497e-01 3.00111748072630968e-01 4.04782365086369896e-04 7.03136089043393249e-04
1.97500000000000000e+10 5.58063251806884398e-04 -1.28739432669366916e-03 3.09755712969208785e-01 2.16725067782688630e-01 3.09755712969208785e-01 2.16725067782688630e-01 -2.98374792493389664e-04 4.08512158185952192e-06
1.97600000000000000e+10 1.01242085657945883e-04 -9.98533969544737479e-04 3.61453445159946873e-01 1.10323871281959779e-01 3.61453445159946873e-01 1.10323871281959779e-01 7.93320440389268347e-05 7.95702481799323764e-04
1.97700000000000000e+10 1.61816041716607447e-04 6.80947587394283845e-05 3.77602572507879763e-01 -7.25947702533631146e-03 3.77602572507879763e-01 -7.25947702533631146e-03 7.98177615881140098e-04 9.47904265425228085e-04
1.97800000000000000e+10 -7.38791198475236824e-04 1.22694234909230494e-03 3.55613870312837643e-01 -1.23526682054239251e-01 3.55613870312837643e-01 -1.23526682054239251e-01 -2.04511900085695532e-03 -2.38343574468497991e-04
1.97900000000000000e+10 8.52933868865030434e-05 -6.20649187223226207e-04 2.99477704677601153e-01 -2.28297260338177571e-01 2.99477704677601153e-01 -2.28297260338177571e-01 -1.35554526006842219e-03 8.19067626960008225e-05
1.98000000000000000e+10 -1.13225803906591619e-04 2.16792241512297383e-03 2.14347318878854831e-01 -3.10470684641120986e-01 2.14347318878854831e-01 -3.10470684641120986e-01 7.02357439074621087e-04 7.59796828458232654e-04
1.98100000000000000e+10 8.94065201834646963e-04 -7.28217327880958032e-04 1.09139995568553805e-01 -3.61870982407282549e-01 1.09139995568553805e-01 -3.61870982407282549e-01 -2.96092239608789865e-04 5.07262504319390634e-05
1.98200000000000000e+10 -9.88385576109410656e-04 2.27591427379948621e-04 -8.89794321216609216e-03 -3.76565597716672418e-01 -8.89794321216609216e-03 -3.76565597716672418e-01 -6.89026069209962982e-04 5.22469961663667116e-04
1.98300000000000000e+10 -2.86232844566684200e-04 7.73775100000213497e-04 -1.24567768852910307e-01 -3.57118378281131910e-01 -1.24567768852910307e-01 -3.57118378281131910e-01 1.23410226362875635e-03 1.24057537399048425e-03
1.98400000000000000e+10 5.86133396534964011e-04 1.33191767282423291e-03 -2.26839248851587072e-01 -2.99405576640883020e-01 -2.26839248851587072e-01 -2.99405576640883020e-01 1.64282313270870016e-04 8.30944826708088723e-04
1.98500000000000000e+10 -6.21284340636286047e-04 3.21849310759661413e-04 -3.10043002752462049e-01 -2.14891879587355450e-01 -3.10043002752462049e-01 -2.14891879587355450e-01 -2.43604349145509847e-05 1.41719432522979132e-04
1.98600000000000000e+10 2.73581166368839666e-04 -1.01231981432041212e-03 -3.59813823874858996e-01 -1.07177859751838883e-01 -3.59813823874858996e-01 -1.07177859751838883e-01 -4.12141840695373488e-04 2.84025514618326880e-04
1.98700000000000000e+10 -2.72452150749167015e-04 -7.08118098563859642e-04 -3.76161362521297393e-01 8.55221782805091341e-03 -3.76161362521297393e-01 8.55221782805091341e-03 9.38071585844769029e-04 -9.89155147666825516e-05
1.98800000000000000e+10 -3.10387764921770640e-04 -7.98734638334733108e-05 -3.54705914907929853e-01 1.24257873127221821e-01 -3.54705914907929853e-01 1.24257873127221821e-01 -7.77900407056337194e-04 -4.14548038593474949e-05
1.98900000000000000e+10 2.87980395060030876e-04 -5.39670801819529841e-04 -2.98709483453178493e-01 2.27233940734292955e-01 -2.98709483453178493e-01 2.27233940734292955e-01 4.07698937459115176e-04 -3.62111420032766790e-04
1.99000000000000000e+10 9.33271504429597758e-04 -1.72346085185088753e-04 -2.13794692509654799e-01 3.09132939558095565e-01 -2.13794692509654799e-01 3.09132939558095565e-01 4.67796808869321761e-04 6.05723796313143532e-04
1.99100000000000000e+10 -6.30902946116494202e-04 -3.47597179404405122e-04 -1.08384427662579649e-01 3.60911429856852206e-01 -1.08384427662579649e-01 3.60911429856852206e-01 -3.90072654750104450e-05 1.09542990105505975e-03
1.99200000000000000e+10 -1.81366555401226906e-04 1.00625510359460594e-03 1.03546604406831097e-02 3.75195265813709600e-01 1.03546604406831097e-02 3.75195265813709600e-01 4.93098120712828270e-04 8.55872987898458277e-04
1.99300000000000000e+10 9.91308110573923705e-04 1.22292505442921621e-04 1.25171950162096035e-01 3.55668532913187230e-01 1.25171950162096035e-01 3.55668532913187230e-01 5.93610054040939316e-04 -3.33086494892518366e-04
1.99400000000000000e+10 -1.96243330067406917e-04 -6.35390289011758617e-05 2.28818645543928306e-01 2.97754117259708628e-01 2.28818645543928306e-01 2.97754117259708628e-01 -3.68168583269347903e-04 7.75113623110404654e-04
1.99500000000000000e+10 -3.50658186939742226e-04 6.01019576504690177e-04 3.07697172363110893e-01 2.14025445774062906e-01 3.07697172363110893e-01 2.14025445774062906e-01 2.70786434775829616e-04 -2.21594519245088068e-04
1.99600000000000000e+10 6.36407688503505043e-04 5.47578734752417174e-04 3.60488284001677650e-01 1.08359867465659981e-01 3.60488284001677650e-01 1.08359867465659981e-01 1.87526889692707697e-04 -9.74095578207640313e-04
1.99700000000000000e+10 -3.11154019816001985e-04 2.23614310516543095e-03 3.73711427399839147e-01 -9.44636632067512826e-03 3.73711427399839147e-01 -9.44636632067512826e-03 -8.24314901771917808e-04 2.47750592730385747e-04
1.99800000000000000e+10 -9.19863374697918809e-05 9.34339643326673576e-04 3.54400242136804600e-01 -1.23654526047484239e-01 3.54400242136804600e-01 -1.23654526047484239e-01 8.56257224517050592e-04 -9.26265178819657550e-04
1.99900000000000000e+10 8.04749612667298190e-04 -5.28723476328236009e-04 2.97310865425494120e-01 -2.28759552375185637e-01 2.97310865425494120e-01 -2.28759552375185637e-01 -1.47292553651134987e-04 3.34955438280073970e-05
2.00000000000000000e+10 -9.06833758856970436e-04 1.01699018152216487e-03 2.11181605606552691e-01 -3.07256083076435371e-01 2.11181605606552691e-01 -3.07256083076435371e-01 -6.02105071979987748e-04 -2.82365577584561855e-04
2.00100000000000000e+10 -5.61534163795015888e-04 9.89499270254419016e-05 1.05778989534873719e-01 -3.59820997789920771e-01 1.05778989534873719e-01 -3.59820997789920771e-01 5.62854988344119547e-04 -2.07809175668402231e-04
2.00200000000000000e+10 1.05020372263348082e-03 -9.14273714893582543e-04 -1.06080810746943949e-02 -3.75570269696101466e-01 -1.06080810746943949e-02 -3.75570269696101466e-01 1.19580205656415195e-03 -3.38888669253712045e-04
2.00300000000000000e+10 -1.20264973827514661e-03 -1.77305809479627705e-03 -1.25148886252203606e-01 -3.52371995272848237e-01 -1.25148886252203606e-01 -3.52371995272848237e-01 4.13731126977799992e-04 3.13226052342030286e-05
2.00400000000000000e+10 -9.87286682001282901e-04 -1.41277783091997751e-04 -2.27808984621551969e-01 -2.96915147785762223e-01 -2.27808984621551969e-01 -2.96915147785762223e-01 -2.67431785164133683e-04 -5.13398286463928621e-04
2.00500000000000000e+10 1.88841937444271654e-04 1.43167115130752838e-03 -3.08316145581861267e-01 -2.11914143014534762e-01 -3.08316145581861267e-01 -2.11914143014534762e-01 4.78102318296314162e-04 9.06220441925505800e-05
2.00600000000000000e+10 -3.18060697158856361e-04 1.67481934725797403e-03 -3.59437710932984433e-01 -1.07903497982621124e-01 -3.59437710932984433e-01 -1.07903497982621124e-01 1.23233768067645836e-03 -5.31194494413889627e-04
2.00700000000000000e+10 -1.22233776784534958e-03 -3.52592423040082499e-04 -3.73754324486701428e-01 9.53839636748799943e-03 -3.73754324486701428e-01 9.53839636748799943e-03 6.80350173638051342e-04 -4.69929759870474763e-04
2.00800000000000000e+10 1.33666264116415949e-03 3.43228145413730700e-04 -3.51796122645515408e-01 1.25887929853715275e-01 -3.51796122645515408e-01 1.25887929853715275e-01 -1.08122100612034907e-03 -7.73096228057976176e-04
2.00900000000000000e+10 4.27106609203629179e-04 5.80158702094942356e-06 -2.96241131216466447e-01 2.29181150158231067e-01 -2.96241131216466447e-01 2.29181150158231067e-01 6.05272270401316804e-04 -1.28097897356516913e-03
2.01000000000000000e+10 1.29870035855375859e-03 1.90411272190909111e-04 -2.10971210524124736e-01 3.08948104401179813e-01 -2.10971210524124736e-01 3.08948104401179813e-01 -1.32874375418655908e-04 -2.73311427849608863e-04
2.01100000000000000e+10 -1.43239767473195539e-04 9.64432029702409245e-04 -1.04513063775408407e-01 3.58993379375450339e-01 -1.04513063775408407e-01 3.58993379375450339e-01 -7.37621027574534931e-04 3.49958710730541897e-04
2.01200000000000000e+10 4.76475958032329433e-04 -1.26956936523984327e-03 1.11822844859052525e-02 3.74192791022642635e-01 1.11822844859052525e-02 3.74192791022642635e-01 -1.27119780344418722e-03 1.05300534516968654e-03
2.01300000000000000e+10 3.55527349496844998e-04 6.43329204532125062e-04 1.25218403060532529e-01 3.53962787351373986e-01 1.25218403060532529e-01 3.53962787351373986e-01 1.41765366259732624e-03 1.82027183837993019e-03
2.01400000000000000e+10 -6.50995835080949727e-04 -1.70156946447310093e-04 2.29372254665241998e-01 2.95788257211025640e-01 2.29372254665241998e-01 2.95788257211025640e-01 -1.72323634313935683e-04 2.43946514697032294e-04
2.01500000000000000e+10 -7.38035465764873126e-04 8.94660709559167420e-04 3.09203520689982414e-01 2.10891534543296066e-01 3.09203520689982414e-01 2.10891534543296066e-01 -9.26124749433831574e-04 1.40784323970137137e-03
2.01600000000000000e+10 -1.40306157636355366e-04 2.99878348318988999e-04 3.59794050450556790e-01 1.04591439385268686e-01 3.59794050450556790e-01 1.04591439385268686e-01 -2.37593511559917257e-04 -1.14894626000774784e-03
2.01700000000000000e+10 1.57673285867927001e-03 -1.26793923789996973e-03 3.74256806120737584e-01 -1.04556981927882292e-02 3.74256806120737584e-01 -1.04556981927882292e-02 -1.07022277861260561e-03 -6.34985104056408258e-04
2.01800000000000000e+10 1.56665952984626558e-03 -8.83916472653201299e-04 3.52805712712877972e-01 -1.25630988124524695e-01 3.52805712712877972e-01 -1.25630988124524695e-01 -1.38524297596198816e-03 -3.25099866571304988e-05
2.01900000000000000e+10 -2.04844120139277737e-04 1.23965615172091535e-03 2.96549368762627608e-01 -2.30156629335273616e-01 2.96549368762627608e-01 -2.30156629335273616e-01 -5.25748635872760189e-05 -6.62604718483443978e-04
2.02000000000000000e+10 3.24720659491361906e-05 7.04059659623153884e-04 2.09337064898920566e-01 -3.08457206324783906e-01 2.09337064898920566e-01 -3.08457206324783906e-01 3.63363618064009800e-05 5.38987292197298578e-04
2.02100000000000000e+10 3.77615185479770142e-04 -9.83866765219479486e-05 1.05536401643999814e-01 -3.58668451219441076e-01 1.05536401643999814e-01 -3.58668451219441076e-01 -4.68904074699901994e-04 -8.83632450880762060e-04
2.02200000000000000e+10 1.11788326356425182e-04 1.07969695495960293e-03 -1.05636945572907572e-02 -3.72418946371219750e-01 -1.05636945572907572e-02 -3.72418946371219750e-01 4.18278062832675704e-04 6.92039643942776142e-04
2.02300000000000000e+10 -8.81224765856567080e-04 -3.07459091381865343e-04 -1.25925338546049731e-01 -3.51487119249363100e-01 -1.25925338546049731e-01 -3.51487119249363100e-01 3.01508872107562518e-04 -3.01927139063590522e-05
2.02400000000000000e+10 -1.19229565808043575e-03 -5.71980161099614371e-04 -2.27811519255153527e-01 -2.93632494123266474e-01 -2.27811519255153527e-01 -2.93632494123266474e-01 -9.50672598959378251e-04 -2.31259733675539338e-04
2.02500000000000000e+10 8.82928802304746240e-04 5.06364620951758253e-04 -3.08455110751089057e-01 -2.09798761366995212e-01 -3.08455110751089057e-01 -2.09798761366995212e-01 5.05823467648600588e-04 5.96334458340350062e-04
2.02600000000000000e+10 -8.57821723253899518e-04 -2.14190811998068157e-04 -3.58690078586756333e-01 -1.03643670814269770e-01 -3.58690078586756333e-01 -1.03643670814269770e-01 1.00519111247221332e-04 -6.92525559655733799e-04
2.02700000000000000e+10 -4.21055583934974525e-04 4.80026267582759215e-04 -3.73339713620172431e-01 1.26170853587594008e-02 -3.73339713620172431e-01 1.26170853587594008e-02 -3.23076204079165616e-04 2.40972138680735836e-04
2.02800000000000000e+10 -6.54578418374830067e-04 1.00940275150413037e-03 -3.50353511297083475e-01 1.25992049473679979e-01 -3.50353511297083475e-01 1.25992049473679979e-01 -5.70903451061892581e-04 -6.26193028488223973e-04
2.02900000000000000e+10 -2.31387740976579702e-03 -2.32736558740155965e-04 -2.92707719354829754e-01 2.29772919675919868e-01 -2.92707719354829754e-01 2.29772919675919868e-01 1.51983316575277801e-05 -9.70449591725637745e-04
2.03000000000000000e+10 4.53585567646625019e-04 -1.20581207053948539e-03 -2.10203692868780406e-01 3.08652845924012098e-01 -2.10203692868780406e-01 3.08652845924012098e-01 -8.33950674075374155e-04 8.15497402146442979e-04
2.03100000000000000e+10 1.11403877466854982e-05 -3.93860060101377922e-04 -1.01445535574832768e-01 3.58369265922998559e-01 -1.01445535574832768e-01 3.58369265922998559e-01 2.93322446156978707e-04 4.17709489382311295e-05
2.03200000000000000e+10 -3.25566153482542762e-04 -1.12089848557992084e-03 1.27869626886114220e-02 3.72473775756402947e-01 1.27869626886114220e-02 3.72473775756402947e-01 -1.07035254961958758e-03 2.12147050054210871e-04
2.03300000000000000e+10 -8.03301194209213895e-04 -7.71487721248181576e-04 1.27673025557434650e-01 3.49485873527271895e-01 1.27673025557434650e-01 3.49485873527271895e-01 4.13670761715610619e-05 -1.05116667809994520e-03
2.03400000000000000e+10 1.44793080318314683e-04 4.48754039861342085e-04 2.29875581052671335e-01 2.93424963685144091e-01 2.29875581052671335e-01 2.93424963685144091e-01 1.44506457788667842e-04 -7.90996839590979613e-04
2.03500000000000000e+10 -1.14564658879153501e-03 -3.51055806692985976e-04 3.09603672282619258e-01 2.08035227464376499e-01 3.09603672282619258e-01 2.08035227464376499e-01 4.96187440511680557e-04 9.88116653317614672e-04
2.03600000000000000e+10 7.76242127271984414e-04 -8.61317828828861995e-04 3.57152157639645307e-01 1.03240857729683319e-01 3.57152157639645307e-01 1.03240857729683319e-01 3.51573170832043542e-04 -8.10474468354293546e-04
2.03700000000000000e+10 1.16374742122054143e-03 7.12981023712143912e-04 3.71198783710209423e-01 -1.39567966619617324e-02 3.71198783710209423e-01 -1.39567966619617324e-02 6.19814467850393299e-04 -3.28003827691880417e-04
2.03800000000000000e+10 1.05776801268852596e-03 -4.33837069304370579e-04 3.50693012902722479e-01 -1.27712371365555855e-01 3.50693012902722479e-01 -1.27712371365555855e-01 -8.69278190154398108e-04 3.52983394431221752e-04
2.03900000000000000e+10 -7.92520411594264972e-04 3.02081079417041896e-04 2.92138350069914288e-01 -2.29517640972753900e-01 2.92138350069914288e-01 -2.29517640972753900e-01 -1.39534829437716266e-06 -1.49505853877367656e-04
2.04000000000000000e+10 -8.83342055235748687e-05 5.32561369102194744e-04 2.07588310771413015e-01 -3.07949509626787410e-01 2.07588310771413015e-01 -3.07949509626787410e-01 3.55260533335189472e-04 -1.72854452562232063e-05
2.04100000000000000e+10 -5.70878339890006797e-04 8.12766726794936765e-04 1.02384937922310001e-01 -3.56090257293996348e-01 1.02384937922310001e-01 -3.56090257293996348e-01 -8.05928185410026659e-04 -7.80485585876386067e-04
2.04200000000000000e+10 -1.37127569649859256e-04 -3.92166622050389984e-04 -1.45811755362235135e-02 -3.71085922522140843e-01 -1.45811755362235135e-02 -3.71085922522140843e-01 1.22829258004734389e-03 4.94598727264933670e-04
2.04300000000000000e+10 -1.94743206466159945e-03 1.36835669996729694e-05 -1.28028761980494621e-01 -3.47499865468270941e-01 -1.28028761980494621e-01 -3.47499865468270941e-01 -1.10953196056747558e-03 7.24955328152898084e-04
2.04400000000000000e+10 4.13177940515351613e-04 5.57244904469909592e-04 -2.28651435923808766e-01 -2.92041315847395400e-01 -2.28651435923808766e-01 -2.92041315847395400e-01 -1.53478603040531624e-04 1.01296928803857309e-03
2.04500000000000000e+10 -8.09176396795167354e-04 3.89731311300221752e-04 -3.09262605286859171e-01 -2.05681362506794335e-01 -3.09262605286859171e-01 -2.05681362506794335e-01 -5.96181656592204858e-04 2.05072179671437549e-04
2.04600000000000000e+10 2.62118384904641003e-05 2.58279863315851104e-05 -3.56032238387114175e-01 -1.01079203726498909e-01 -3.56032238387114175e-01 -1.01079203726498909e-01 3.52324823490093766e-04 1.33425409680254216e-04
2.04700000000000000e+10 8.40105323674227456e-04 -3.90271074470804067e-04 -3.70755924990860908e-01 1.46745388476433227e-02 -3.70755924990860908e-01 1.46745388476433227e-02 -8.09406004636552598e-05 3.83520677942850770e-04
2.04800000000000000e+10 2.98251993665338353e-04 9.35101327771957502e-04 -3.47931385711395369e-01 1.27777175031816043e-01 -3.47931385711395369e-01 1.27777175031816043e-01 -4.84126533398672053e-04 -9.68478096740958173e-04
2.04900000000000000e+10 5.18380665566601975e-04 5.51974038406340714e-04 -2.91211318585148982e-01 2.28191894981451565e-01 -2.91211318585148982e-01 2.28191894981451565e-01 -4.19687710538182079e-04 -1.11444144532516333e-03
2.05000000000000000e+10 4.39644217026388608e-04 -2.19251420359844513e-04 -2.06619682207587557e-01 3.07670864687969670e-01 -2.06619682207587557e-01 3.07670864687969670e-01 -1.17460631285229078e-04 -2.48444209917174336e-05
2.05100000000000000e+10 -3.11363383794171947e-04 3.39363361543489018e-04 -1.00808208384033024e-01 3.55743348714532726e-01 -1.00808208384033024e-01 3.55743348714532726e-01 6.26137921065620935e-04 -6.55688584403404224e-04
2.05200000000000000e+10 -9.12196253253954800e-04 -7.61854648483254035e-04 1.46997203037661627e-02 3.70026772825120531e-01 1.46997203037661627e-02 3.70026772825120531e-01 -1.54638972600385394e-04 6.46666991424736529e-04
2.05300000000000000e+10 -4.99790533498159452e-04 9.02746596950541251e-04 1.27279276414011572e-01 3.48883771302633039e-01 1.27279276414011572e-01 3.48883771302633039e-01 4.92539892528200281e-04 2.52492480650773842e-04
2.05400000000000000e+10 -2.34313593801027220e-04 2.14962294932305106e-04 2.29494373344335117e-01 2.91352132489965443e-01 2.29494373344335117e-01 2.91352132489965443e-01 2.52263259518766198e-04 -5.33431114219819376e-04
2.05500000000000000e+10 1.11596964364700231e-03 4.34541139604123711e-04 3.09008967146233382e-01 2.07155335069710705e-01 3.09008967146233382e-01 2.07155335069710705e-01 6.83427652594416563e-04 5.36791480061446003e-04
2.05600000000000000e+10 7.22983694749545613e-04 -2.19159089876237095e-05 3.57951775563781105e-01 1.00410308733537512e-01 3.57951775563781105e-01 1.00410308733537512e-01 3.40922734508816304e-04 3.56886864455238726e-04
2.05700000000000000e+10 5.38181990598695617e-04 4.03110156152260428e-04 3.70276202730408344e-01 -1.43035197386999404e-02 3.70276202730408344e-01 -1.43035197386999404e-02 -4.01090134568892322e-04 -9.83212592516549948e-04
2.05800000000000000e+10 1.04332595608788516e-04 9.25130530761911771e-04 3.47179702550482250e-01 -1.28952644789818660e-01 3.47179702550482250e-01 -1.28952644789818660e-01 2.02859810718322015e-04 2.58327913583667260e-03
2.05900000000000000e+10 2.04392979452724672e-04 -3.71523178159730900e-06 2.90242603558102941e-01 -2.28948646895911212e-01 2.90242603558102941e-01 -2.28948646895911212e-01 5.78575569897316414e-04 6.09135322278669370e-04
2.06000000000000000e+10 -7.55497559404228066e-04 -5.22144461983768617e-04 2.05410297716586865e-01 -3.08221054002498218e-01 2.05410297716586865e-01 -3.08221054002498218e-01 -4.63576263866649770e-04 -1.66435073879062795e-04
2.06100000000000000e+10 -1.41685576363551166e-03 -9.33011345911743126e-04 9.87675952203982410e-02 -3.55402682977869699e-01 9.87675952203982410e-02 -3.55402682977869699e-01 9.34663516532851240e-06 9.25555257531750290e-05
2.06200000000000000e+10 5.39455100366297621e-04 7.43011046961384019e-05 -1.55311813924579063e-02 -3.69531186149609669e-01 -1.55311813924579063e-02 -3.69531186149609669e-01 -3.11375078961046461e-05 9.18522492378995932e-04
2.06300000000000000e+10 3.87973011334064716e-04 1.06334288085368047e-03 -1.28863751287406236e-01 -3.45834150703247190e-01 -1.28863751287406236e-01 -3.45834150703247190e-01 4.67029995462045521e-04 -8.17105793009377285e-04
2.06400000000000000e+10 1.05931760240256072e-03 9.25285527175057597e-04 -2.28571332280073508e-01 -2.90927376846722319e-01 -2.28571332280073508e-01 -2.90927376846722319e-01 -4.70167745349132254e-04 -1.23290494759051056e-03
2.06500000000000000e+10 -7.02100021320021909e-04 3.10319174730036627e-04 -3.06258640717790687e-01 -2.05536883006073923e-01 -3.06258640717790687e-01 -2.05536883006073923e-01 9.02363929998754215e-04 -3.66981821247308526e-06
2.06600000000000000e+10 1.08759400176802073e-03 -2.51517482910172067e-05 -3.55438665710783308e-01 -9.86002015236991380e-02 -3.55438665710783308e-01 -9.86002015236991380e-02 -3.43610627922810372e-04 -9.22520640622787481e-04
2.06700000000000000e+10 5.75445207985045043e-04 2.21896319006862665e-04 -3.69569283757151701e-01 1.65296374373045257e-02 -3.69569283757151701e-01 1.65296374373045257e-02 -1.04826503666805910e-04 -1.57952632258410037e-04
2.06800000000000000e+10 4.67157976127619435e-04 6.61130872396957416e-04 -3.45651131659060917e-01 1.27989199824305039e-01 -3.45651131659060917e-01 1.27989199824305039e-01 -4.96535109594433235e-04 -1.19651169622869363e-04
2.06900000000000000e+10 4.60907083333133888e-04 1.51609097022094427e-03 -2.89099771012413076e-01 2.30048006255013759e-01 -2.89099771012413076e-01 2.30048006255013759e-01 5.79103058197254065e-04 1.10913707425381865e-03
2.07000000000000000e+10 -1.12233974594666086e-04 3.20493464895532318e-04 -2.03792332350423183e-01 3.07471836690202449e-01 -2.03792332350423183e-01 3.07471836690202449e-01 -6.32402413661817264e-04 -3.33260639153220155e-05
2.07100000000000000e+10 1.38945307881735230e-03 -5.27883585702181024e-04 -9.74992294673563131e-02 3.53807154370220145e-01 -9.74992294673563131e-02 3.53807154370220145e-01 -5.07871412468603668e-04 8.45510434189774087e-05
2.07200000000000000e+10 -2.50286247508457152e-04 -1.95069456947865856e-04 1.70029883585363223e-02 3.68244937563621200e-01 1.70029883585363223e-02 3.68244937563621200e-01 -7.26443409886141315e-04 1.02878237860482951e-04
2.07300000000000000e+10 7.97005446391372695e-04 8.58710376906895718e-04 1.29844905837365354e-01 3.45889618987589242e-01 1.29844905837365354e-01 3.45889618987589242e-01 -2.26323489827060946e-04 -8.87642273789486101e-04
2.07400000000000000e+10 8.57904796456758771e-04 3.68343206107789073e-04 2.29921099130735884e-01 2.87151979974801963e-01 2.29921099130735884e-01 2.87151979974801963e-01 1.94044614744799866e-04 -1.27923725493548040e-03
2.07500000000000000e+10 2.94986985979295020e-04 -9.53522742025737454e-04 3.07683438473436544e-01 2.03865582774784643e-01 3.07683438473436544e-01 2.03865582774784643e-01 -7.13724409157364130e-04 -4.48394976884757674e-04
2.07600000000000000e+10 1.33019124313332070e-04 -7.35297191465031374e-05 3.55057747466213824e-01 9.84767278687053160e-02 3.55057747466213824e-01 9.84767278687053160e-02 -1.01141997715996598e-04 6.26836864418376803e-04
2.07700000000000000e+10 3.83743335673676113e-04 1.06030444757829493e-03 3.67802608615212412e-01 -1.69332583246692876e-02 3.67802608615212412e-01 -1.69332583246692876e-02 1.92268653750775136e-04 3.66997565156334095e-04
2.07800000000000000e+10 5.01726957788558399e-04 -6.16278226596898848e-04 3.44313810311553670e-01 -1.29782186491634921e-01 3.44313810311553670e-01 -1.29782186491634921e-01 -2.38191218186433491e-06 2.44090931855773483e-04
2.07900000000000000e+10 -5.79217344213404234e-04 -2.13412261970360006e-05 2.87648982085414839e-01 -2.30274136363441462e-01 2.87648982085414839e-01 -2.30274136363441462e-01 6.13108147062796632e-04 -3.33243995871645071e-04
2.08000000000000000e+10 3.82733392887954005e-04 1.49610283161024423e-03 2.01416307116599413e-01 -3.06916524901480803e-01 2.01416307116599413e-01 -3.06916524901480803e-01 -5.93768245915802855e-04 9.62340067259734463e-04
2.08100000000000000e+10 3.11197247315869751e-04 9.10524315357419877e-04 9.57579215115001853e-02 -3.54080439084350163e-01 9.57579215115001853e-02 -3.54080439084350163e-01 -2.72406583662370978e-04 -9.57618981356112941e-04
2.08200000000000000e+10 -7.55245035544756358e-04 -6.35925799985941173e-04 -1.69024550520544825e-02 -3.67421550365742200e-01 -1.69024550520544825e-02 -3.67421550365742200e-01 -1.52313741599301470e-03 9.87699746238717390e-04
2.08300000000000000e+10 -2.54180307887416797e-04 7.22769513302068227e-04 -1.29765996011044327e-01 -3.43911811177792237e-01 -1.29765996011044327e-01 -3.43911811177792237e-01 -1.26259008933699967e-03 8.92321565570150456e-04
2.08400000000000000e+10 3.41088075701399384e-04 2.57123644243178009e-04 -2.29478419793980176e-01 -2.86189426784815959e-01 -2.29478419793980176e-01 -2.86189426784815959e-01 4.87317357303471935e-04 -1.42566138309590292e-04
2.08500000000000000e+10 -7.56931115616144771e-04 -8.15337514938518871e-04 -3.06989832014567532e-01 -2.03040992545021698e-01 -3.06989832014567532e-01 -2.03040992545021698e-01 -8.25171349439331127e-05 -9.44352600051482217e-04
2.08600000000000000e+10 5.60633845937408715e-04 -4.19655959884564038e-04 -3.54064844048443017e-01 -9.74395334764619897e-02 -3.54064844048443017e-01 -9.74395334764619897e-02 -3.95924918318224766e-04 4.41728571733481261e-04
2.08700000000000000e+10 6.74476667623594562e-05 -1.22210106268950264e-03 -3.66627702648448683e-01 1.69630511408496581e-02 -3.66627702648448683e-01 1.69630511408496581e-02 -1.09926044902150348e-04 -4.75420021404114482e-04
2.08800000000000000e+10 5.43736783023090336e-04 -1.04466796962263109e-03 -3.43373482490464399e-01 1.29212827663628627e-01 -3.43373482490464399e-01 1.29212827663628627e-01 1.44813516734446719e-04 -1.07096294385658665e-04
2.08900000000000000e+10 -3.86971327652024929e-04 -4.15560697712209336e-04 -2.87112336885566644e-01 2.30984514442694078e-01 -2.87112336885566644e-01 2.30984514442694078e-01 -1.40410638683464810e-03 8.83369615474116393e-04
2.09000000000000000e+10 -1.38616519000690666e-03 2.25598779851165582e-04 -2.02345916568912071e-01 3.07965856544839933e-01 -2.02345916568912071e-01 3.07965856544839933e-01 4.37474524287232084e-05 -4.68393639344954907e-04
2.09100000000000000e+10 -5.42114270690740772e-04 5.11935381710978832e-06 -9.67764704151536925e-02 3.54891208111621781e-01 -9.67764704151536925e-02 3.54891208111621781e-01 1.24364948106212833e-04 6.34352142826287690e-05
2.09200000000000000e+10 -1.69214186157033556e-03 1.08218853245900851e-03 1.75575613237432017e-02 3.67149647419678982e-01 1.75575613237432017e-02 3.67149647419678982e-01 1.36533167215219416e-03 -1.29914038942139862e-03
2.09300000000000000e+10 -1.01057850505297732e-04 4.05100765660039636e-04 1.29590905898023967e-01 3.42515869689824948e-01 1.29590905898023967e-01 3.42515869689824948e-01 -3.63676858586372631e-04 -4.98029746012515853e-04
2.09400000000000000e+10 -8.58369526033693161e-04 2.91847752579255017e-04 2.30017105086428725e-01 2.87427617483586584e-01 2.30017105086428725e-01 2.87427617483586584e-01 1.43592552879042920e-03 1.86086228195817016e-03
2.09500000000000000e+10 1.37842917157429993e-03 -2.71472086216310491e-04 3.05596799873516012e-01 2.00532371364123940e-01 3.05596799873516012e-01 2.00532371364123940e-01 -3.67684610610880501e-04 -8.72274379997322268e-04
2.09600000000000000e+10 5.13924227602218886e-04 -8.54276237758404711e-04 3.53506632640224805e-01 9.57756812749534919e-02 3.53506632640224805e-01 9.57756812749534919e-02 1.41807121704982117e-03 5.17385728058662492e-04
2.09700000000000000e+10 -7.27831206373278890e-04 -2.19260344646614482e-04 3.66670276899050074e-01 -1.72744998910688251e-02 3.66670276899050074e-01 -1.72744998910688251e-02 -2.34623984284412567e-04 1.92909300938437695e-04
2.09800000000000000e+10 -5.65806555931884590e-04 7.56943617429958987e-04 3.41047093977167814e-01 -1.30972221680802969e-01 3.41047093977167814e-01 -1.30972221680802969e-01 8.53386796890011015e-05 -5.45890534428515703e-04
2.09900000000000000e+10 5.92796779435547714e-04 -5.92101775700956418e-04 2.85767981607645383e-01 -2.29278619444265641e-01 2.85767981607645383e-01 -2.29278619444265641e-01 5.37470359020787887e-04 2.82795720295763104e-04
2.10000000000000000e+10 1.13771794767341842e-04 -1.55383635713178233e-03 2.00350415134305931e-01 -3.07083988738598268e-01 2.00350415134305931e-01 -3.07083988738598268e-01 8.84297623802302599e-04 1.35978758730366869e-04
2.10100000000000000e+10 -1.38869947142648766e-03 6.28959636129629231e-04 9.62213723211044342e-02 -3.54314188035963762e-01 9.62213723211044342e-02 -3.54314188035963762e-01 1.39587405358437253e-05 4.61786632844745411e-04
2.10200000000000000e+10 -9.49198484464101161e-04 1.01085310508671982e-04 -1.83609887588169519e-02 -3.65397833593640420e-01 -1.83609887588169519e-02 -3.65397833593640420e-01 -1.33157644793792428e-03 -7.66066424443233958e-04
2.10300000000000000e+10 4.84416619748524464e-04 -3.34899190065781737e-04 -1.30860162926053264e-01 -3.42022834664423514e-01 -1.30860162926053264e-01 -3.42022834664423514e-01 -6.46401261608147912e-04 3.27409951777821347e-04
2.10400000000000000e+10 1.16786339520839541e-03 1.17394668291921243e-03 -2.31396741419411578e-01 -2.84481722997421915e-01 -2.31396741419411578e-01 -2.84481722997421915e-01 1.07190818458621816e-03 5.04143290560376623e-04
2.10500000000000000e+10 6.36610375304947512e-04 -2.78877761798526950e-04 -3.07570111241400823e-01 -1.99619312113399838e-01 -3.07570111241400823e-01 -1.99619312113399838e-01 -2.16468421520745678e-04 -2.68475979772227807e-05
2.10600000000000000e+10 -8.92269243894004390e-04 5.43196627626418090e-04 -3.54115533614943800e-01 -9.52297135851394028e-02 -3.54115533614943800e-01 -9.52297135851394028e-02 1.70153091906921302e-03 -8.29674483390241543e-04
2.10700000000000000e+10 -6.55681689966955178e-04 -2.54644896807705134e-05 -3.65175821404815915e-01 1.86197825052884895e-02 -3.65175821404815915e-01 1.86197825052884895e-02 6.40769600091231173e-04 -4.91186433255122123e-05
2.10800000000000000e+10 -2.52638690534263629e-04 4.94173887493953639e-04 -3.41908299152511752e-01 1.30073807990443713e-01 -3.41908299152511752e-01 1.30073807990443713e-01 8.70807385369942147e-05 -6.63793487943363535e-04
2.10900000000000000e+10 -3.44996173082027133e-05 -3.93131966004234517e-04 -2.84825332704528755e-01 2.31016077203977432e-01 -2.84825332704528755e-01 2.31016077203977432e-01 4.53787633986850781e-05 -2.33441540862054989e-04
2.11000000000000000e+10 -7.68564073575555055e-04 -1.42843002192364048e-04 -1.99278849494231691e-01 3.06583559938579275e-01 -1.99278849494231691e-01 3.06583559938579275e-01 1.19245884649540472e-04 1.16863143142344823e-03
2.11100000000000000e+10 7.40387986625411915e-04 -2.63403674679010304e-04 -9.48347131390369774e-02 3.54284085478124011e-01 -9.48347131390369774e-02 3.54284085478124011e-01 -9.42037381657662349e-04 2.77072798369492972e-04
2.11200000000000000e+10 -9.30966246447442996e-05 -3.75219673131523923e-04 1.96413703576343787e-02 3.64687931498504481e-01 1.96413703576343787e-02 3.64687931498504481e-01 6.47991803982753091e-04 -1.77739645766404868e-04
2.11300000000000000e+10 -4.58908496932173529e-05 -5.54879746934440932e-04 1.30429587507354616e-01 3.39870794962049694e-01 1.30429587507354616e-01 3.39870794962049694e-01 -7.88876468351554032e-04 -4.83744322074433077e-04
2.11400000000000000e+10 -1.00044876012245470e-03 -2.47455466502626996e-04 2.30078493155472824e-01 2.84818512006169533e-01 2.30078493155472824e-01 2.84818512006169533e-01 -7.96749334679873033e-04 1.07137988841132553e-03
2.11500000000000000e+10 -3.75514220716923169e-04 1.99480663066920198e-04 3.06984325027379268e-01 1.98650664231824037e-01 3.06984325027379268e-01 1.98650664231824037e-01 -3.68980274111252557e-04 -3.05722870921804101e-04
2.11600000000000000e+10 -1.01513915444837750e-06 7.00112133346802914e-04 3.52734773375794841e-01 9.46031455569198987e-02 3.52734773375794841e-01 9.46031455569198987e-02 -7.42901137891028803e-04 1.95541620996724316e-04
2.11700000000000000e+10 -4.45079100461945971e-04 -6.43488762169812400e-04 3.64712698424243198e-01 -1.94696579305950780e-02 3.64712698424243198e-01 -1.94696579305950780e-02 -8.82185424636619010e-04 5.11049088237070068e-04
2.11800000000000000e+10 8.57874146000685940e-04 -1.36908536628028098e-03 3.40643734431929190e-01 -1.31694633993954341e-01 3.40643734431929190e-01 -1.31694633993954341e-01 4.77024243326219679e-04 -1.40283564554094959e-04
2.11900000000000000e+10 -3.43565249648428660e-04 2.59366803274327612e-04 2.82275477147598153e-01 -2.31021872531968431e-01 2.82275477147598153e-01 -2.31021872531968431e-01 3.51177108782555869e-04 -1.15193193016239451e-03
2.12000000000000000e+10 1.46380746534938958e-03 3.97134652205782162e-04 1.98356392517849200e-01 -3.05646507995409877e-01 1.98356392517849200e-01 -3.05646507995409877e-01 -5.02199846712245179e-04 1.45309008547366784e-03
2.12100000000000000e+10 -1.34841740286626311e-03 7.67835182982055963e-05 9.30922159033805430e-02 -3.52362299369776089e-01 9.30922159033805430e-02 -3.52362299369776089e-01 -3.92785018330370249e-04 1.58715305171781731e-03
2.12200000000000000e+10 -8.46235309833808110e-04 -7.60693450915328435e-05 -2.06932087794844885e-02 -3.63769960291429828e-01 -2.06932087794844885e-02 -3.63769960291429828e-01 9.00135172442074875e-04 1.82883213095697645e-03
2.12300000000000000e+10 -5.54513808255862597e-04 -5.85897536977578984e-04 -1.31563141972978276e-01 -3.41341780888546553e-01 -1.31563141972978276e-01 -3.41341780888546553e-01 7.41561306327173327e-04 4.49831594027668509e-04
2.12400000000000000e+10 6.37473185695044140e-04 -7.26714880195294087e-04 -2.29711367498695473e-01 -2.81719265597488111e-01 -2.29711367498695473e-01 -2.81719265597488111e-01 -7.66640984351008763e-04 -1.32098142113105932e-04
2.12500000000000000e+10 3.40335259665132698e-04 1.28933178220853244e-04 -3.07747227564123371e-01 -1.97895685850264930e-01 -3.07747227564123371e-01 -1.97895685850264930e-01 -9.40715355434200472e-04 -9.55090018059893769e-04
2.12600000000000000e+10 4.10752618684197637e-04 -3.25582762631187951e-05 -3.51500802628336495e-01 -9.32686657313674533e-02 -3.51500802628336495e-01 -9.32686657313674533e-02 6.08937403127176972e-04 -8.62841872232735624e-04
2.12700000000000000e+10 1.03006624220194912e-04 -1.99566768331541463e-04 -3.62977168583290044e-01 2.03618074780372652e-02 -3.62977168583290044e-01 2.03618074780372652e-02 -2.96376415266353581e-04 5.98566399442136839e-04
2.12800000000000000e+10 -8.73622374318798619e-04 8.16736139201999626e-04 -3.39037294370327646e-01 1.31656296395575495e-01 -3.39037294370327646e-01 1.31656296395575495e-01 9.14228491826747950e-04 -2.02032612710895630e-04
2.12900000000000000e+10 1.18477853040027128e-03 -6.99895898437262703e-04 -2.81306841925618611e-01 2.29483265467353231e-01 -2.81306841925618611e-01 2.29483265467353231e-01 -1.02076489139316237e-03 2.45859311152560333e-04
2.13000000000000000e+10 8.61745764790330942e-05 2.74369237911152688e-05 -1.96734749882760324e-01 3.06250353038679479e-01 -1.96734749882760324e-01 3.06250353038679479e-01 -4.95201069436699247e-04 6.07502915522164914e-04
2.13100000000000000e+10 1.02332736484912656e-04 7.72691234176824571e-04 -9.29098185136432858e-02 3.51719405709969402e-01 -9.29098185136432858e-02 3.51719405709969402e-01 -2.25335702097561143e-04 5.61001816404920329e-04
2.13200000000000000e+10 6.06573231204254317e-04 -8.36856307341414443e-04 2.01083553421526756e-02 3.64395345339432353e-01 2.01083553421526756e-02 3.64395345339432353e-01 5.68054767916295893e-04 4.26026267144050835e-04
2.13300000000000000e+10 -3.83005226369144522e-04 -1.26888786580640358e-03 1.32326733559695542e-01 3.38507353104069486e-01 1.32326733559695542e-01 3.38507353104069486e-01 1.24691968461302684e-03 -9.04250146313480426e-04
2.13400000000000000e+10 -4.76699153420841919e-04 -1.71972164180040493e-04 2.30193181300781646e-01 2.80167784688951260e-01 2.30193181300781646e-01 2.80167784688951260e-01 6.01772955721347207e-04 4.14571627009567014e-04
2.13500000000000000e+10 3.83726860028474033e-04 -2.75554206854774749e-04 3.07615841636400877e-01 1.95904121962366035e-01 3.07615841636400877e-01 1.95904121962366035e-01 5.77262810856889164e-04 -1.19363479985902318e-04
2.13600000000000000e+10 2.34532365712569627e-05 -2.30944920821621335e-04 3.50801302635644630e-01 9.08409477736302901e-02 3.50801302635644630e-01 9.08409477736302901e-02 1.90506332761840959e-04 1.34371226423652627e-03
2.13700000000000000e+10 1.53921286652036033e-03 -8.89383382307763022e-04 3.62800164951078696e-01 -2.15567921837111695e-02 3.62800164951078696e-01 -2.15567921837111695e-02 -8.67639867243546743e-04 1.05343196349617441e-03
2.13800000000000000e+10 -2.05965538987162367e-04 -1.05120413566089921e-03 3.37616063191407745e-01 -1.32653908142561866e-01 3.37616063191407745e-01 -1.32653908142561866e-01 1.88602823833899843e-04 1.82269238758477384e-04
2.13900000000000000e+10 -1.81165981416197473e-04 -3.63314649840821438e-05 2.80030945906165563e-01 -2.30026341178379334e-01 2.80030945906165563e-01 -2.30026341178379334e-01 -7.55470171874921578e-04 5.26027709598955425e-04
2.14000000000000000e+10 -1.98831132759153206e-04 6.80966232682580206e-04 1.95746742399494689e-01 -3.06050342732105296e-01 1.95746742399494689e-01 -3.06050342732105296e-01 7.07985233561747042e-04 -4.39879200405758240e-04
2.14100000000000000e+10 -3.63614017203052031e-04 1.28817928264992384e-03 9.20758407216916985e-02 -3.51239778128594970e-01 9.20758407216916985e-02 -3.51239778128594970e-01 -1.46933190792077040e-03 1.96489766542324863e-04
2.14200000000000000e+10 1.14713944039786741e-03 1.42688460170419906e-03 -2.29782631267036151e-02 -3.60671980640504986e-01 -2.29782631267036151e-02 -3.60671980640504986e-01 -5.04924252958093185e-04 6.10305436798811753e-05
2.14300000000000000e+10 -1.33267499927312285e-04 -4.21124366384364134e-04 -1.33097516636210333e-01 -3.37686009401636233e-01 -1.33097516636210333e-01 -3.37686009401636233e-01 1.40726316219681822e-03 -1.27653567583844714e-03
2.14400000000000000e+10 -4.61260197098020751e-04 8.91404915621484060e-04 -2.29111963477677372e-01 -2.79478599785869974e-01 -2.29111963477677372e-01 -2.79478599785869974e-01 -2.81974084793079529e-03 -8.80936426828830550e-04
2.14500000000000000e+10 -1.55842645414028909e-03 -8.01776706398609450e-04 -3.05613862130079461e-01 -1.95039526468532870e-01 -3.05613862130079461e-01 -1.95039526468532870e-01 -8.72368686269595615e-04 1.10905219175604379e-04
2.14600000000000000e+10 -1.15597915904533952e-03 5.75895716706186899e-04 -3.51170239650300198e-01 -9.13532485557702334e-02 -3.51170239650300198e-01 -9.13532485557702334e-02 -4.35155844466550402e-04 7.31908454617410448e-05
2.14700000000000000e+10 -5.43829930805034083e-04 2.31804850178907342e-04 -3.62114504677391036e-01 2.30033279504607904e-02 -3.62114504677391036e-01 2.30033279504607904e-02 -3.90844017780466783e-05 -8.14876607704628992e-04
2.14800000000000000e+10 3.53013250164997282e-04 1.26741661437882749e-06 -3.36437722444248133e-01 1.33589299518023619e-01 -3.36437722444248133e-01 1.33589299518023619e-01 -3.68976440455909429e-05 -1.51710604347892451e-03
2.14900000000000000e+10 -1.04014154251217913e-03 7.07180221173838889e-05 -2.79983427732788559e-01 2.30775828269842082e-01 -2.79983427732788559e-01 2.30775828269842082e-01 -4.61798719919458871e-04 -8.17263133217894003e-04
2.15000000000000000e+10 4.51844728890268420e-04 -3.37650671179635248e-04 -1.95105826850336506e-01 3.05781068633149578e-01 -1.95105826850336506e-01 3.05781068633149578e-01 6.37525947688522606e-04 2.19446603942437333e-04
2.15100000000000000e+10 -1.03816760331891327e-03 -1.01165559765828980e-03 -9.02277272802114033e-02 3.50390867545079754e-01 -9.02277272802114033e-02 3.50390867545079754e-01 -2.99048448603183464e-04 -4.50217756815448489e-05
2.15200000000000000e+10 4.31457995738523210e-04 -7.39101541817849522e-04 2.32614125018355718e-02 3.60329046703244726e-01 2.32614125018355718e-02 3.60329046703244726e-01 -1.55706083047301488e-04 1.34984454148010164e-03
2.15300000000000000e+10 -4.15404190416454871e-04 1.78801625532222535e-04 1.33686455964269146e-01 3.37185319400467531e-01 1.33686455964269146e-01 3.37185319400467531e-01 -5.11330874942903879e-04 4.00779791578993955e-04
2.15400000000000000e+10 1.70209247043115182e-04 1.35283452421270712e-03 2.30672541683118210e-01 2.77967459556683560e-01 2.30672541683118210e-01 2.77967459556683560e-01 -3.55963652478700837e-04 -1.02460758232257414e-03
2.15500000000000000e+10 -5.38975430121142176e-04 1.72537942924628465e-04 3.05938355990868049e-01 1.93911757519171030e-01 3.05938355990868049e-01 1.93911757519171030e-01 2.16332770782455130e-04 -1.02750736077654101e-03
2.15600000000000000e+10 -7.79668283434484829e-04 -1.89058242393811771e-03 3.49308148075919422e-01 9.01350824075589363e-02 3.49308148075919422e-01 9.01350824075589363e-02 7.31258083764636975e-04 -3.46577459997101769e-05
2.15700000000000000e+10 1.37108068975250338e-03 2.76134807480775911e-04 3.60640084932958183e-01 -2.40016104059447705e-02 3.60640084932958183e-01 -2.40016104059447705e-02 -1.37248548895810881e-04 8.84563684207793281e-04
2.15800000000000000e+10 5.69085664582757523e-04 7.60164015612071553e-04 3.35432523790901549e-01 -1.32825066216004539e-01 3.35432523790901549e-01 -1.32825066216004539e-01 -9.27940627804511539e-04 4.06628410562446965e-04
2.15900000000000000e+10 4.86544268337997380e-04 6.54658792158581372e-04 2.77948737761176012e-01 -2.30872003506911644e-01 2.77948737761176012e-01 -2.30872003506911644e-01 9.04648955419914383e-04 -8.19979657563268895e-04
2.16000000000000000e+10 1.34006947503606408e-04 -1.37683231975351678e-03 1.93639437235216427e-01 -3.04890565766007982e-01 1.93639437235216427e-01 -3.04890565766007982e-01 -4.68529233911400909e-04 4.37891244144343670e-04
2.16100000000000000e+10 3.78654128256674999e-04 9.75782331499164615e-04 8.89235037414932844e-02 -3.49958135225580613e-01 8.89235037414932844e-02 -3.49958135225580613e-01 6.57260740574886469e-04 -1.07556175799086696e-03
2.16200000000000000e+10 1.02497509772403353e-03 7.81100150287978201e-04 -2.34638995966346998e-02 -3.60798882046375669e-01 -2.34638995966346998e-02 -3.60798882046375669e-01 -1.67580819791044908e-04 6.55098267566957097e-04
2.16300000000000000e+10 -1.27314342294362610e-03 4.48047808622334485e-05 -1.32311038526976066e-01 -3.36346620335217672e-01 -1.32311038526976066e-01 -3.36346620335217672e-01 1.43223627324475748e-03 -3.27472470109471301e-04
2.16400000000000000e+10 8.93348946212313335e-04 1.31020658078627385e-03 -2.31574556083807948e-01 -2.77306911480180385e-01 -2.31574556083807948e-01 -2.77306911480180385e-01 -5.24130409498914010e-05 -2.50546860868694096e-05
2.16500000000000000e+10 -6.12311993122673006e-04 9.73208630009865278e-04 -3.05022831507309022e-01 -1.92265366735058257e-01 -3.05022831507309022e-01 -1.92265366735058257e-01 -2.62374482100922503e-04 4.87478204652032907e-04
2.16600000000000000e+10 -1.85902510391221254e-04 -5.85607123622634623e-04 -3.51160017670953950e-01 -8.77476763604627952e-02 -3.51160017670953950e-01 -8.77476763604627952e-02 -4.02833573360020293e-05 -2.28341706925287664e-04
2.16700000000000000e+10 6.34642475534130017e-04 -8.33690303108140904e-04 -3.60156036026880733e-01 2.37162641217915672e-02 -3.60156036026880733e-01 2.37162641217915672e-02 -7.45920734174425532e-04 7.80146631156129050e-05
2.16800000000000000e+10 -6.68687870945229622e-04 3.10700139668144417e-04 -3.35243261609595222e-01 1.33213300103197679e-01 -3.35243261609595222e-01 1.33213300103197679e-01 -3.98404381708347590e-04 7.18613887291726962e-04
2.16900000000000000e+10 -4.12693960448594463e-04 -8.60869363794471436e-04 -2.75404593085720906e-01 2.30682731690822429e-01 -2.75404593085720906e-01 2.30682731690822429e-01 -4.79112605421477453e-04 -1.19137701388960559e-03
2.17000000000000000e+10 -1.85485920844866495e-04 1.25913401138586498e-04 -1.91392163100859825e-01 3.04252558611684321e-01 -1.91392163100859825e-01 3.04252558611684321e-01 1.10028292857471818e-04 8.64619470575810479e-04
2.17100000000000000e+10 -6.97795485007842342e-04 -8.67385849675467819e-04 -8.86111837385542001e-02 3.49457297488656504e-01 -8.86111837385542001e-02 3.49457297488656504e-01 -7.53058269226348977e-05 3.72282095604623919e-04
2.17200000000000000e+10 2.39445284870887508e-04 4.19338130381295877e-04 2.32631835953461055e-02 3.58848789939616775e-01 2.32631835953461055e-02 3.58848789939616775e-01 5.99020247932492266e-04 -7.23692278306313171e-04
2.17300000000000000e+10 6.54048938468186039e-04 -1.66267913254480502e-04 1.33549452483910064e-01 3.35168164246426037e-01 1.33549452483910064e-01 3.35168164246426037e-01 -1.02413178542771005e-04 -1.01441505330044073e-03
2.17400000000000000e+10 4.68793254312927280e-04 4.75423489568907107e-04 2.30490567025642412e-01 2.77110094286278086e-01 2.30490567025642412e-01 2.77110094286278086e-01 -1.64765600670189918e-03 -4.30463317815131649e-04
2.17500000000000000e+10 -6.39527192434600133e-04 1.03428330265171835e-03 3.06731034666567703e-01 1.90494694947718118e-01 3.06731034666567703e-01 1.90494694947718118e-01 -6.43039426517214322e-04 -2.05997643145739302e-04
2.17600000000000000e+10 -1.89553521830266707e-04 1.25090378868746339e-05 3.50433622943470136e-01 8.69702333376765890e-02 3.50433622943470136e-01 8.69702333376765890e-02 -3.98836689367375590e-04 6.22494976158192276e-04
2.17700000000000000e+10 -4.48289306989368757e-04 3.61563848314034925e-04 3.58263283408339683e-01 -2.43104862734343577e-02 3.58263283408339683e-01 -2.43104862734343577e-02 3.55278510648052539e-04 -4.18002824164329394e-04
2.17800000000000000e+10 -6.82669952212849808e-04 -5.48811432403438536e-04 3.34338524445652485e-01 -1.34680932586228513e-01 3.34338524445652485e-01 -1.34680932586228513e-01 8.31766433492402298e-04 7.79120575324802889e-04
2.17900000000000000e+10 1.11148180109090877e-03 -3.89951793376918938e-04 2.76640184575905168e-01 -2.32122813987923698e-01 2.76640184575905168e-01 -2.32122813987923698e-01 -1.97162300942398843e-04 1.14076821848898158e-03
2.18000000000000000e+10 -1.10902615950064310e-03 4.74552499334204619e-04 1.90125870222458165e-01 -3.03756384914240452e-01 1.90125870222458165e-01 -3.03756384914240452e-01 1.63324485385290055e-03 1.04205485638090688e-03
2.18100000000000000e+10 -8.14734123758018654e-06 -1.60713311058196325e-03 8.76438161418708200e-02 -3.49118717571886061e-01 8.76438161418708200e-02 -3.49118717571886061e-01 -1.04121031315003052e-03 1.08877551650161730e-04
2.18200000000000000e+10 8.22392959394442060e-04 -3.57472839942708494e-04 -2.47490597587209545e-02 -3.59389455653282841e-01 -2.47490597587209545e-02 -3.59389455653282841e-01 -5.43844137976808506e-04 -8.31786112063147330e-04
2.18300000000000000e+10 7.04128510985201463e-04 -1.62669907557030599e-03 -1.34224054370462864e-01 -3.32642641121419225e-01 -1.34224054370462864e-01 -3.32642641121419225e-01 -1.55025118048745863e-03 9.49511382484989207e-04
2.18400000000000000e+10 4.73490702351059007e-04 8.61718665664413489e-04 -2.30740412885729745e-01 -2.75599106774363167e-01 -2.30740412885729745e-01 -2.75599106774363167e-01 -8.63811293118421164e-04 3.00659509334088139e-04
2.18500000000000000e+10 -2.82598190758320334e-04 8.18922209908449594e-04 -3.05102985552537509e-01 -1.90441051640828612e-01 -3.05102985552537509e-01 -1.90441051640828612e-01 9.31258761359520589e-04 -3.65751959207206382e-04
2.18600000000000000e+10 4.81061698431009880e-04 2.87434607228678458e-04 -3.48460823783411033e-01 -8.64953200329657973e-02 -3.48460823783411033e-01 -8.64953200329657973e-02 3.99422030470668901e-05 -1.01983502584290136e-03
2.18700000000000000e+10 3.15265028716477666e-04 -4.48925211254670091e-04 -3.57580220110332636e-01 2.54462690352287198e-02 -3.57580220110332636e-01 2.54462690352287198e-02 8.77948804616375620e-04 7.57675426021850039e-04
2.18800000000000000e+10 1.19722568145744657e-03 -1.33659398569592512e-03 -3.33194568208901087e-01 1.34322617120838400e-01 -3.33194568208901087e-01 1.34322617120838400e-01 -4.01004510540832590e-04 -6.95480624440198607e-04
2.18900000000000000e+10 -4.12054387618682915e-05 -6.38953320222085982e-04 -2.74894460227364801e-01 2.30351292062486196e-01 -2.74894460227364801e-01 2.30351292062486196e-01 6.51831750057414033e-04 3.90639902070359299e-04
2.19000000000000000e+10 -4.66478306149161999e-04 1.96005933714150422e-04 -1.89719982297879591e-01 3.05184445650623082e-01 -1.89719982297879591e-01 3.05184445650623082e-01 -2.00436931249687867e-04 -8.00249324367905638e-04
2.19100000000000000e+10 6.05015871335979911e-04 -5.82786744210535970e-05 -8.52221288774220598e-02 3.48457229359881826e-01 -8.52221288774220598e-02 3.48457229359881826e-01 -4.91720723504510712e-04 -4.01991261592966073e-04
2.19200000000000000e+10 -4.63352225463579926e-04 6.91639253334403229e-04 2.64943103440398696e-02 3.56811437570546341e-01 2.64943103440398696e-02 3.56811437570546341e-01 6.77339231372372109e-04 -6.19852206548711891e-04
2.19300000000000000e+10 5.02024056424254378e-04 -7.06169109934388830e-04 1.36312598588833267e-01 3.32224710990475680e-01 1.36312598588833267e-01 3.32224710990475680e-01 4.53598116410320825e-04 2.90085312766975932e-04
2.19400000000000000e+10 1.05132034922760033e-04 4.52680441194843635e-04 2.30484280544827835e-01 2.73408586742338588e-01 2.30484280544827835e-01 2.73408586742338588e-01 -7.67582999024254568e-05 8.36307424278005958e-04
2.19500000000000000e+10 6.50549055162937093e-04 1.68475760360887319e-05 3.04990314769418569e-01 1.89286203812930764e-01 3.04990314769418569e-01 1.89286203812930764e-01 -5.49055560088708276e-04 2.70441429914664586e-04
2.19600000000000000e+10 -8.06664452857496633e-04 6.07676322613085471e-04 3.46302358612962935e-01 8.60446751430348489e-02 3.46302358612962935e-01 8.60446751430348489e-02 -1.74028060084087426e-04 -8.97377851439757008e-04
2.19700000000000000e+10 6.14631344750709999e-04 3.96644801686075034e-04 3.57656819113794266e-01 -2.59771365094124060e-02 3.57656819113794266e-01 -2.59771365094124060e-02 -1.35831179882234855e-05 1.40403995081081023e-03
2.19800000000000000e+10 -6.30448097829695441e-04 6.02168813581451271e-04 3.32859418703429111e-01 -1.34266328296735599e-01 3.32859418703429111e-01 -1.34266328296735599e-01 3.00598503661840117e-05 -2.42876663597970652e-04
2.19900000000000000e+10 -2.12061091425806610e-05 -4.11443568419872637e-04 2.74390704328077384e-01 -2.30025086148202551e-01 2.74390704328077384e-01 -2.30025086148202551e-01 9.65954451338482309e-04 -6.01418789419089065e-04
2.20000000000000000e+10 2.06082655324957043e-04 5.73529899195307112e-04 1.87645361765637647e-01 -3.04984645997065262e-01 1.87645361765637647e-01 -3.04984645997065262e-01 5.35985571075852404e-04 2.65691446472711152e-04
2.20100000000000000e+10 6.54384583309329916e-04 -5.81544358811223125e-05 8.50352029729753295e-02 -3.46643652625145793e-01 8.50352029729753295e-02 -3.46643652625145793e-01 1.21683408725082546e-03 1.19180163156548712e-03
2.20200000000000000e+10 -2.66383022052205088e-04 -8.76806797941805560e-04 -2.60512790252169571e-02 -3.57330878561942622e-01 -2.60512790252169571e-02 -3.57330878561942622e-01 -4.63564238364535868e-04 7.01778898407413258e-04
2.20300000000000000e+10 -3.27880736647083947e-04 4.76288468574406711e-04 -1.34958953018715327e-01 -3.29784491229485832e-01 -1.34958953018715327e-01 -3.29784491229485832e-01 1.17844539490861338e-03 1.29284674833552338e-03
2.20400000000000000e+10 -1.21234303081415012e-03 -6.69922933068476528e-04 -2.29878323723598010e-01 -2.72991547676616542e-01 -2.29878323723598010e-01 -2.72991547676616542e-01 3.96959357966358113e-04 -5.77495117017112606e-04
2.20500000000000000e+10 -1.31129564253670275e-03 -3.61260592237938887e-04 -3.04559392184191924e-01 -1.88173743521322157e-01 -3.04559392184191924e-01 -1.88173743521322157e-01 7.93075574262754610e-04 4.84206577518429338e-04
2.20600000000000000e+10 -1.23250824893808304e-03 3.64357947056521687e-04 -3.47747209685596748e-01 -8.54340962235438095e-02 -3.47747209685596748e-01 -8.54340962235438095e-02 7.81703860566950945e-04 1.23281980943163003e-03
2.20700000000000000e+10 1.46555395837791964e-03 -6.47206976738206805e-04 -3.57400374811153609e-01 2.63234987042832956e-02 -3.57400374811153609e-01 2.63234987042832956e-02 3.19845401367990681e-04 -4.33836875999733389e-05
2.20800000000000000e+10 8.76934735351389376e-04 2.74303582632929742e-04 -3.30614552555759778e-01 1.35594757239336922e-01 -3.30614552555759778e-01 1.35594757239336922e-01 -1.87061740197148397e-04 1.90614486363607755e-04
2.20900000000000000e+10 -3.77697238004274301e-04 2.64311359831910563e-04 -2.71971902944062427e-01 2.31878178686955289e-01 -2.71971902944062427e-01 2.31878178686955289e-01 3.49524059707261524e-05 -8.56456038320279581e-04
2.21000000000000000e+10 -3.19662321931050303e-04 4.70922823026446178e-04 -1.88009153812827540e-01 3.03730521107447693e-01 -1.88009153812827540e-01 3.03730521107447693e-01 7.93612611418902450e-04 -7.03942762918367034e-05
2.21100000000000000e+10 -7.52603984175019493e-04 -3.67175431939782790e-04 -8.41965267395605316e-02 3.45634920011398061e-01 -8.41965267395605316e-02 3.45634920011398061e-01 -2.62682973563995782e-04 -1.13662846896920346e-04
2.21200000000000000e+10 5.30119140956527169e-04 6.63790547252644607e-04 2.79868081427042531e-02 3.56662925799583752e-01 2.79868081427042531e-02 3.56662925799583752e-01 5.36189868089889752e-05 3.93196457250482277e-04
2.21300000000000000e+10 3.68113709810582209e-04 -4.75722362012959686e-04 1.35511137218113503e-01 3.29682842104088714e-01 1.35511137218113503e-01 3.29682842104088714e-01 1.26085456615532884e-03 -1.17872210277504639e-03
2.21400000000000000e+10 -4.73742390959302670e-04 7.11698713995065455e-06 2.32853042738164595e-01 2.71775321058777497e-01 2.32853042738164595e-01 2.71775321058777497e-01 -1.02477642413265849e-03 6.81095532138938542e-04
2.21500000000000000e+10 -2.78487361485310440e-04 -4.38479348272329122e-05 3.03964236436020496e-01 1.87460821438486996e-01 3.03964236436020496e-01 1.87460821438486996e-01 -1.47563366225894496e-04 9.10426796934355083e-04
2.21600000000000000e+10 -1.80190895348753943e-03 6.35699960104889458e-04 3.47460884172730411e-01 8.40588063267557750e-02 3.47460884172730411e-01 8.40588063267557750e-02 -3.15147651253150092e-04 -3.19459519092346708e-05
2.21700000000000000e+10 9.05052543938207675e-04 -1.19684741035182654e-03 3.55062606733391961e-01 -2.87212034894341502e-02 3.55062606733391961e-01 -2.87212034894341502e-02 3.38357888134380451e-04 -1.52975325181485783e-03
2.21800000000000000e+10 7.29324057242799854e-04 1.31904449074473479e-04 3.28782517568110721e-01 -1.36343857956781112e-01 3.28782517568110721e-01 -1.36343857956781112e-01 7.01906498740717858e-04 8.35590050482711098e-04
2.21900000000000000e+10 1.63730633883664775e-04 7.83624925089885680e-04 2.70939570394084506e-01 -2.31038677600769488e-01 2.70939570394084506e-01 -2.31038677600769488e-01 1.35505376019859477e-03 -1.01181199837366482e-03
2.22000000000000000e+10 1.31617862605547687e-03 3.75837972597689628e-04 1.87813790943890696e-01 -3.05124286617824259e-01 1.87813790943890696e-01 -3.05124286617824259e-01 1.13185331377717077e-04 -5.91715966014509523e-04
2.22100000000000000e+10 -1.01024687974735701e-03 3.75933869202710737e-04 8.20373540473229163e-02 -3.45792515742337880e-01 8.20373540473229163e-02 -3.45792515742337880e-01 2.14491262732911250e-04 5.72426369868143611e-04
2.22200000000000000e+10 -4.18899118108614931e-04 3.21142212180183589e-04 -2.76795348012354898e-02 -3.56250463881239154e-01 -2.76795348012354898e-02 -3.56250463881239154e-01 -2.77846278283891803e-04 -5.44579294883721179e-04
2.22300000000000000e+10 -1.11338441238687945e-03 -9.70793385759756563e-05 -1.36273003399800474e-01 -3.30071557394266579e-01 -1.36273003399800474e-01 -3.30071557394266579e-01 9.49562174707375560e-04 1.27246105665989028e-04
2.22400000000000000e+10 -2.25917844871378952e-04 -4.13964893769347116e-04 -2.31715293040049758e-01 -2.69682106101941765e-01 -2.31715293040049758e-01 -2.69682106101941765e-01 -9.13915263069171760e-04 -2.55915320716088132e-04
2.22500000000000000e+10 1.39418646982012058e-04 7.28880175348920931e-04 -3.03235670427274395e-01 -1.83902610004821776e-01 -3.03235670427274395e-01 -1.83902610004821776e-01 -5.59608428685524388e-05 -7.37829567404650702e-05
2.22600000000000000e+10 3.29461967136026885e-04 -1.75895382500319344e-05 -3.45122217121886621e-01 -8.19301431822240384e-02 -3.45122217121886621e-01 -8.19301431822240384e-02 4.09210747694898746e-04 -9.24638154927222072e-04
2.22700000000000000e+10 -1.90901981084625871e-03 1.37972048684877556e-03 -3.53650198814282279e-01 2.74025967767740596e-02 -3.53650198814282279e-01 2.74025967767740596e-02 1.24144137570598355e-04 -3.87857203146267572e-04
2.22800000000000000e+10 -9.78164048772195384e-04 3.02464304578044002e-04 -3.27912109180119704e-01 1.35990171138867882e-01 -3.27912109180119704e-01 1.35990171138867882e-01 -5.83198644640127244e-04 4.60717037528317937e-04
2.22900000000000000e+10 -7.81365298386845842e-04 7.40524674321566142e-04 -2.69690873276366594e-01 2.31486452693942441e-01 -2.69690873276366594e-01 2.31486452693942441e-01 6.70159117750472057e-04 5.27346334594834629e-04
2.23000000000000000e+10 9.91535845325455887e-04 2.82744854408373562e-05 -1.85226132347333095e-01 3.03822493241847347e-01 -1.85226132347333095e-01 3.03822493241847347e-01 2.17766180125171575e-04 -1.04895160630367112e-03
2.23100000000000000e+10 -2.65554093149831258e-04 6.77327658151321774e-04 -8.29193782402147389e-02 3.46104808449691104e-01 -8.29193782402147389e-02 3.46104808449691104e-01 -1.85061245316928157e-03 -6.68515843496903244e-04
2.23200000000000000e+10 6.86471969268265714e-04 -1.49040641151304315e-03 2.89424424939550042e-02 3.53535518042874974e-01 2.89424424939550042e-02 3.53535518042874974e-01 3.94038723427095989e-04 5.19013251443989029e-04
2.23300000000000000e+10 -4.64931129728223983e-05 -1.16642358840873513e-03 1.37220351568607457e-01 3.26301117376431582e-01 1.37220351568607457e-01 3.26301117376431582e-01 -4.71199372765905491e-04 -2.06673114552469146e-04
2.23400000000000000e+10 9.20371255533724729e-04 -1.02870876621748326e-03 2.32229101098519686e-01 2.68909104335594562e-01 2.32229101098519686e-01 2.68909104335594562e-01 1.08129894290353266e-03 -3.10276083619414516e-04
2.23500000000000000e+10 -6.59080167547243588e-04 -2.88788121837308309e-04 3.03722035145407354e-01 1.83976313661064900e-01 3.03722035145407354e-01 1.83976313661064900e-01 -3.09587028412875191e-04 1.58962082876710825e-04
2.23600000000000000e+10 -2.91300503464498749e-04 -3.54292518405629109e-04 3.45507925821553485e-01 8.08860290853841146e-02 3.45507925821553485e-01 8.08860290853841146e-02 -1.44845727106864735e-04 -6.64592859469142106e-04
2.23700000000000000e+10 -1.14338010813255699e-03 4.42420638924420054e-04 3.54086219128061652e-01 -2.85401923853381839e-02 3.54086219128061652e-01 -2.85401923853381839e-02 4.55901191015800112e-04 -2.20017384231728660e-04
2.23800000000000000e+10 8.05902695785953941e-05 7.63133022439777074e-04 3.27308553567077554e-01 -1.36572583657362023e-01 3.27308553567077554e-01 -1.36572583657362023e-01 -7.14725118128439470e-04 2.14717426669258177e-04
2.23900000000000000e+10 3.07721689020797994e-04 3.93939674789406207e-04 2.70048876825961570e-01 -2.31146492293485439e-01 2.70048876825961570e-01 -2.31146492293485439e-01 -8.01546863853312545e-04 3.84410885420494858e-04
2.24000000000000000e+10 -3.28920748690296786e-04 -3.74424098867268530e-04 1.83523987489569468e-01 -3.01879927519760838e-01 1.83523987489569468e-01 -3.01879927519760838e-01 -4.66287524313340157e-04 -1.56986717742028871e-03
2.24100000000000000e+10 4.95198931785476113e-04 -1.09504844724953181e-04 8.23450321292008985e-02 -3.45376600089957631e-01 8.23450321292008985e-02 -3.45376600089957631e-01 1.10166781982632854e-03 -2.26376313353632378e-04
2.24200000000000000e+10 -9.44629548313745209e-04 -2.17943678653964253e-04 -2.94820030613931368e-02 -3.52811574996015787e-01 -2.94820030613931368e-02 -3.52811574996015787e-01 -2.78114216442273434e-04 8.23613921434442829e-05
2.24300000000000000e+10 8.25383962831501982e-04 3.55125665664457447e-04 -1.36148005770398622e-01 -3.25084259238457851e-01 -1.36148005770398622e-01 -3.25084259238457851e-01 -3.19013998948114430e-04 4.98153949654154236e-04
2.24400000000000000e+10 -1.26709890482338389e-03 1.79600878314916702e-04 -2.31049243314497527e-01 -2.67864570013723879e-01 -2.31049243314497527e-01 -2.67864570013723879e-01 -2.62734405490111685e-05 8.38805928759917392e-05
2.24500000000000000e+10 6.27375018433344806e-04 5.31783750631012751e-05 -3.02625455838923918e-01 -1.83884481804935190e-01 -3.02625455838923918e-01 -1.83884481804935190e-01 1.20159990112859755e-04 1.16663357364105041e-04
2.24600000000000000e+10 -4.84915562309099391e-04 7.16789343580533068e-04 -3.45563205554399067e-01 -7.94843408168199872e-02 -3.45563205554399067e-01 -7.94843408168199872e-02 5.38038250527277540e-04 -3.12370519646710718e-04
2.24700000000000000e+10 -6.42199970996015345e-04 8.49049821726882849e-05 -3.52748308451667991e-01 2.97269186379597664e-02 -3.52748308451667991e-01 2.97269186379597664e-02 -3.18334999110913609e-04 -4.51238231842378485e-04
2.24800000000000000e+10 -6.10519919660530036e-04 7.85886502606378029e-04 -3.27527021399446949e-01 1.35592634278844243e-01 -3.27527021399446949e-01 1.35592634278844243e-01 5.19759001629702838e-04 -2.67981418407758670e-04
2.24900000000000000e+10 1.18370090405011058e-03 1.77305394520003550e-04 -2.68835415806167377e-01 2.31783767325508677e-01 -2.68835415806167377e-01 2.31783767325508677e-01 9.21165891434975147e-04 -6.20414851906727575e-04
2.25000000000000000e+10 -1.71544267474490683e-03 -3.96547032650679330e-04 -1.82201739418379416e-01 3.02842331645791163e-01 -1.82201739418379416e-01 3.02842331645791163e-01 -3.06120368371702719e-04 1.64161966964408083e-04
2.25100000000000000e+10 1.11921858209439198e-04 3.27989652916664954e-04 -8.05687700420630731e-02 3.44240029142644621e-01 -8.05687700420630731e-02 3.44240029142644621e-01 1.83774966684501460e-03 1.09638283523822030e-03
2.25200000000000000e+10 -1.30786779066348330e-04 1.07300987702576645e-03 2.88029578670463207e-02 3.52940740488621452e-01 2.88029578670463207e-02 3.52940740488621452e-01 2.61419550668570678e-04 -1.19813092269180485e-03
2.25300000000000000e+10 1.10660750744006925e-03 1.63178188423825495e-04 1.36913257177641606e-01 3.25937093228807373e-01 1.36913257177641606e-01 3.25937093228807373e-01 8.11933073432451668e-04 6.83086177590471150e-04
2.25400000000000000e+10 -1.53356730033778047e-03 -8.66773416722762787e-04 2.32640709948271185e-01 2.68133121956609433e-01 2.32640709948271185e-01 2.68133121956609433e-01 -7.96086036221158228e-04 -1.12792703381886346e-04
2.25500000000000000e+10 6.17250873986607005e-04 -1.15744352614829935e-04 3.03263761850543545e-01 1.83022570371350390e-01 3.03263761850543545e-01 1.83022570371350390e-01 8.31745257494626803e-04 -2.71295089279776013e-05
2.25600000000000000e+10 1.00703634932486309e-03 3.62667309379813166e-04 3.44766115644242976e-01 7.99641330657107768e-02 3.44766115644242976e-01 7.99641330657107768e-02 -6.82030794792991214e-04 4.56102771892056828e-05
2.25700000000000000e+10 -3.79688187602931170e-04 -1.09290281676828027e-05 3.51455935728861246e-01 -3.06375613594101551e-02 3.51455935728861246e-01 -3.06375613594101551e-02 1.92462931429518517e-04 -7.97587207513814826e-04
2.25800000000000000e+10 -4.93332563359488480e-04 -6.49966387768406337e-04 3.24833733700705674e-01 -1.37353432107496981e-01 3.24833733700705674e-01 -1.37353432107496981e-01 4.89221231375535888e-04 -6.81105270901041717e-04
2.25900000000000000e+10 1.15177185245496144e-03 1.02560098197534120e-05 2.66340683723279070e-01 -2.30876617619110602e-01 2.66340683723279070e-01 -2.30876617619110602e-01 1.10573783577549620e-04 -7.59767223504187873e-04
2.26000000000000000e+10 2.11991065798078503e-05 -9.98392020817735195e-04 1.81876756886323182e-01 -3.02833878411059798e-01 1.81876756886323182e-01 -3.02833878411059798e-01 5.45752928289779506e-04 1.59674066811485790e-04
2.26100000000000000e+10 1.42596385925491096e-04 -1.48224689802394965e-05 7.97413185287882548e-02 -3.44273110241422431e-01 7.97413185287882548e-02 -3.44273110241422431e-01 2.97053677541762404e-05 -1.09166823433692927e-03
2.26200000000000000e+10 -1.36007915003252041e-03 3.84265904002454120e-04 -3.09478673689297969e-02 -3.51303477139578380e-01 -3.09478673689297969e-02 -3.51303477139578380e-01 5.16608083957074689e-04 -3.97361544065665613e-04
2.26300000000000000e+10 -5.00945891030421466e-04 -5.17673588477136665e-04 -1.37396353137242383e-01 -3.22775731858885473e-01 -1.37396353137242383e-01 -3.22775731858885473e-01 -7.31785967405035407e-04 2.71114897265169153e-04
2.26400000000000000e+10 -1.88239656623076344e-04 8.95558159873675110e-05 -2.31733115952235197e-01 -2.66330144330061969e-01 -2.31733115952235197e-01 -2.66330144330061969e-01 -1.45716346848474257e-03 1.83262189263503077e-03
2.26500000000000000e+10 -6.14543264391318031e-04 2.21608961593389126e-04 -3.03367499974081467e-01 -1.81999584467116532e-01 -3.03367499974081467e-01 -1.81999584467116532e-01 -2.27249464854356050e-04 5.43468150079313094e-04
2.26600000000000000e+10 2.66823982526320736e-04 -6.70985676075644931e-04 -3.45008921062279705e-01 -7.89838816490337353e-02 -3.45008921062279705e-01 -7.89838816490337353e-02 -5.69050944505055094e-04 9.08977995571316191e-04
2.26700000000000000e+10 2.09414740362885498e-04 4.73690861478181190e-04 -3.50286220673010296e-01 3.10189370698583516e-02 -3.50286220673010296e-01 3.10189370698583516e-02 7.74991448090303300e-04 9.91519950670643503e-04
2.26800000000000000e+10 -1.39380318311853638e-04 4.62125471698316553e-04 -3.24185523300070888e-01 1.37659901805076729e-01 -3.24185523300070888e-01 1.37659901805076729e-01 5.58304682616383801e-04 -8.92823838327827892e-04
2.26900000000000000e+10 3.51073010632981235e-04 5.76447437649188921e-04 -2.64486143371403082e-01 2.32556271807008857e-01 -2.64486143371403082e-01 2.32556271807008857e-01 -9.03687074643230639e-04 4.50485148684225231e-04
2.27000000000000000e+10 3.20354833329772608e-04 -3.76184132820297243e-04 -1.80298471583499237e-01 3.01636084972214780e-01 -1.80298471583499237e-01 3.01636084972214780e-01 6.26294466740191097e-04 -9.74812007134083936e-04
2.27100000000000000e+10 -1.63514767311591824e-03 1.80582930407181380e-04 -7.83117597682449901e-02 3.43338132795136419e-01 -7.83117597682449901e-02 3.43338132795136419e-01 5.93068959500339080e-04 -5.46605238556076940e-04
2.27200000000000000e+10 6.60789080128589370e-04 -1.33230702008833575e-04 3.22904187789301786e-02 3.50990241744317089e-01 3.22904187789301786e-02 3.50990241744317089e-01 -1.54130707262675401e-03 -1.07303024402215924e-04
2.27300000000000000e+10 -5.14672737295332624e-04 -1.99501358928802681e-04 1.38891215515087707e-01 3.23868976917540130e-01 1.38891215515087707e-01 3.23868976917540130e-01 -4.39427691398435296e-04 -1.49075256522242347e-03
2.27400000000000000e+10 -9.98376488893884832e-04 1.54169053100374393e-04 2.31071222605883392e-01 2.64734346155880651e-01 2.31071222605883392e-01 2.64734346155880651e-01 -1.78986554367596842e-04 5.65469838861627598e-04
2.27500000000000000e+10 2.98527929997568088e-04 -4.52076148562285344e-04 3.02026005645713747e-01 1.79701741577192542e-01 3.02026005645713747e-01 1.79701741577192542e-01 -5.49063884210184805e-04 -1.14462286837597083e-03
2.27600000000000000e+10 5.66779892847562054e-04 3.80153756211037072e-05 3.42192808572741036e-01 7.74124855751121554e-02 3.42192808572741036e-01 7.74124855751121554e-02 9.96178588709459778e-04 -1.86195074914057544e-04
2.27700000000000000e+10 -3.98313323692316189e-04 1.73561546927358812e-03 3.50722594900725715e-01 -3.15799638931621093e-02 3.50722594900725715e-01 -3.15799638931621093e-02 -2.61298036755046466e-04 -3.49117704776967226e-04
2.27800000000000000e+10 1.83878937080409898e-03 -4.81964812369924079e-04 3.23872555512381921e-01 -1.38322374781926882e-01 3.23872555512381921e-01 -1.38322374781926882e-01 7.93616059721087368e-04 1.07329003566988888e-03
2.27900000000000000e+10 -8.11020603183803656e-04 1.06087973320169774e-03 2.64173048787614440e-01 -2.32907786371914227e-01 2.64173048787614440e-01 -2.32907786371914227e-01 -1.27712376557994055e-04 -4.90258856950507010e-04
2.28000000000000000e+10 -8.05150731391412198e-04 -6.91903901155248627e-04 1.80273441841165727e-01 -3.02581223644859565e-01 1.80273441841165727e-01 -3.02581223644859565e-01 1.16100128693201747e-03 -2.81146200468716790e-04
2.28100000000000000e+10 -5.11003111101679505e-04 1.01553913163840307e-03 7.68337055945345626e-02 -3.42137370408652941e-01 7.68337055945345626e-02 -3.42137370408652941e-01 7.62804751694660791e-04 5.45765445451138137e-04
2.28200000000000000e+10 3.83472863900917644e-04 -4.27241667422050811e-04 -3.20754185456837010e-02 -3.49000271917899507e-01 -3.20754185456837010e-02 -3.49000271917899507e-01 6.26871279198530054e-05 -4.78053881444209111e-04
2.28300000000000000e+10 -5.92878828495655135e-04 5.09004973375509407e-05 -1.39433055444265624e-01 -3.23322063624011169e-01 -1.39433055444265624e-01 -3.23322063624011169e-01 3.14187312963113221e-04 -3.82350571822252740e-04
2.28400000000000000e+10 1.52639556271177735e-04 -1.37559505541952744e-04 -2.32444663121093714e-01 -2.64308637837752824e-01 -2.32444663121093714e-01 -2.64308637837752824e-01 6.86501199152156631e-04 5.68252841476005730e-04
2.28500000000000000e+10 -2.21983765473379594e-04 -8.33838249323596214e-04 -3.01022257009625260e-01 -1.78598103283587328e-01 -3.01022257009625260e-01 -1.78598103283587328e-01 4.14800834548777143e-04 2.42205046918330687e-04
2.28600000000000000e+10 5.12964330398499660e-04 9.46778276448580506e-04 -3.42079240758517089e-01 -7.76292972026064176e-02 -3.42079240758517089e-01 -7.76292972026064176e-02 3.80182855627780934e-04 -1.47493125287503023e-03
2.28700000000000000e+10 1.62949813204580024e-05 2.55954868782015807e-04 -3.50185190830804072e-01 3.11006973104969268e-02 -3.50185190830804072e-01 3.11006973104969268e-02 -3.78393530275500357e-04 8.72564048446543885e-05
2.28800000000000000e+10 3.91862768996752869e-04 1.07771294651903046e-03 -3.21589871038199637e-01 1.38893197042687044e-01 -3.21589871038199637e-01 1.38893197042687044e-01 8.40417725599189877e-04 9.61403806640587547e-04
2.28900000000000000e+10 -9.87619912443915256e-04 9.71382173976033576e-04 -2.63012377769792582e-01 2.31538464875909483e-01 -2.63012377769792582e-01 2.31538464875909483e-01 2.85685865228957586e-04 -2.58968380937063623e-04
2.29000000000000000e+10 9.13565410601520746e-04 -1.32765323172000954e-04 -1.77215164499064465e-01 3.02842483961400233e-01 -1.77215164499064465e-01 3.02842483961400233e-01 -1.05714834703559096e-03 -4.82263652469691964e-04
2.29100000000000000e+10 2.45860525636578081e-04 3.86741047412400709e-05 -7.67222016199160528e-02 3.42222812876991578e-01 -7.67222016199160528e-02 3.42222812876991578e-01 -6.27272242673894117e-04 8.04074505196747500e-04
2.29200000000000000e+10 1.33664352707581376e-04 2.27962277966432495e-05 3.41187517533718815e-02 3.48515923430383789e-01 3.41187517533718815e-02 3.48515923430383789e-01 -9.54207062277265478e-04 -2.37644532614598140e-04
2.29300000000000000e+10 -5.57478342803660774e-05 -1.03518410321696183e-04 1.39772739982870792e-01 3.21806095465218323e-01 1.39772739982870792e-01 3.21806095465218323e-01 -7.97427034962777865e-04 -5.09917377981569143e-04
2.29400000000000000e+10 2.36770528191617639e-04 -1.46853980303952663e-03 2.31056640949377001e-01 2.62474767357238514e-01 2.31056640949377001e-01 2.62474767357238514e-01 -4.23586206006320007e-06 -5.05504744233990885e-04
2.29500000000000000e+10 -1.88212162554184760e-04 1.22446377484872444e-05 3.02459334456341156e-01 1.77766774300092467e-01 3.02459334456341156e-01 1.77766774300092467e-01 4.25600854029177772e-04 3.96864852074781094e-04
2.29600000000000000e+10 -4.22762661370417337e-04 -1.40235757571460369e-05 3.41548958934255242e-01 7.50144184808149705e-02 3.41548958934255242e-01 7.50144184808149705e-02 -8.97938632790572797e-04 3.50609749818468509e-05
2.29700000000000000e+10 3.71799877550492311e-04 8.51780169691351255e-05 3.46709913810315129e-01 -3.36772824427909595e-02 3.46709913810315129e-01 -3.36772824427909595e-02 5.96116541900409253e-04 -1.63838073115080834e-03
2.29800000000000000e+10 -8.40546566382035848e-04 -6.92007131226237250e-04 3.20248641895477748e-01 -1.39888585030231466e-01 3.20248641895477748e-01 -1.39888585030231466e-01 5.74459291997181896e-05 1.30855139816669582e-03
2.29900000000000000e+10 -3.12749220330650992e-04 -7.59302985097462806e-04 2.61186695759899612e-01 -2.31911625775294672e-01 2.61186695759899612e-01 -2.31911625775294672e-01 -2.57556810360745831e-04 -7.32403237695401516e-04
2.30000000000000000e+10 9.40984085199306013e-04 -5.76791885970552457e-04 1.76973752269592388e-01 -3.02050569765283550e-01 1.76973752269592388e-01 -3.02050569765283550e-01 -1.29894968667904889e-03 -9.82743300918581834e-04
2.30100000000000000e+10 9.16722969488889690e-04 1.01047578008198408e-03 7.45560429917198342e-02 -3.40329909478145953e-01 7.45560429917198342e-02 -3.40329909478145953e-01 -4.98032388256021115e-04 5.77413574809743568e-04
2.30200000000000000e+10 5.59970801324400627e-04 -2.30957082083729684e-04 -3.37884777486412782e-02 -3.47194600105766193e-01 -3.37884777486412782e-02 -3.47194600105766193e-01 1.83673594221031567e-04 1.01733198650449622e-05
2.30300000000000000e+10 1.29564308405815180e-05 8.34378730247593446e-05 -1.40243513815375531e-01 -3.20860531864439802e-01 -1.40243513815375531e-01 -3.20860531864439802e-01 3.70648922215563957e-04 5.81103975491036821e-04
2.30400000000000000e+10 -9.98869557324241764e-05 3.78129345668011248e-04 -2.33144528658978362e-01 -2.61906888379003167e-01 -2.33144528658978362e-01 -2.61906888379003167e-01 2.03724615569129107e-04 8.10710477098692444e-04
2.30500000000000000e+10 -3.19369244849773606e-04 -6.65450230093850487e-04 -3.00959284866628041e-01 -1.76723103564602441e-01 -3.00959284866628041e-01 -1.76723103564602441e-01 -2.37592406215944106e-05 2.03893811470386431e-04
2.30600000000000000e+10 -9.14171247568378964e-04 1.45865156808947828e-03 -3.42203772838027998e-01 -7.58344408571919315e-02 -3.42203772838027998e-01 -7.58344408571919315e-02 3.67130860972044327e-04 -2.36409939559390392e-04
2.30700000000000000e+10 -5.97774905265925508e-04 -3.64407668197806896e-04 -3.48373257497271382e-01 3.41886054356598246e-02 -3.48373257497271382e-01 3.41886054356598246e-02 -2.18677739802147000e-04 -4.22682883200896765e-04
2.30800000000000000e+10 2.85756876322633402e-04 4.45547169044940760e-05 -3.19574453542225634e-01 1.38863052068858517e-01 -3.19574453542225634e-01 1.38863052068858517e-01 -4.41535488691193747e-04 2.19857141953128403e-04
2.30900000000000000e+10 -2.20610364582814232e-04 -3.71734215013273166e-04 -2.59599628895872958e-01 2.29949205991307914e-01 -2.59599628895872958e-01 2.29949205991307914e-01 -1.03947580436205092e-03 -8.05917510408891654e-04
2.31000000000000000e+10 -7.59985606352054418e-04 6.60708149047077500e-04 -1.76380624956299109e-01 3.01852229164920105e-01 -1.76380624956299109e-01 3.01852229164920105e-01 4.53785039634520444e-04 1.88672581029307364e-03
2.31100000000000000e+10 -4.02904139424879130e-04 -5.97521809834188696e-04 -7.47032801166028770e-02 3.39814377086383346e-01 -7.47032801166028770e-02 3.39814377086383346e-01 8.72425190788195812e-04 7.72057449705602439e-04
2.31200000000000000e+10 1.96587758798048775e-04 -5.46316157699677243e-04 3.51178967603587230e-02 3.47639491557749702e-01 3.51178967603587230e-02 3.47639491557749702e-01 -1.34102056114246914e-03 7.38857617072124725e-04
2.31300000000000000e+10 -8.09298016971607566e-04 -1.20706254340834269e-03 1.40551073957753597e-01 3.20618129626002446e-01 1.40551073957753597e-01 3.20618129626002446e-01 1.37589603178974677e-03 -9.84698838503781623e-05
2.31400000000000000e+10 6.82557327813754417e-04 6.60841361765854805e-04 2.33315205195314623e-01 2.62037817057638900e-01 2.33315205195314623e-01 2.62037817057638900e-01 -1.65863473576102955e-04 1.61187863124702922e-03
2.31500000000000000e+10 7.18373108175467514e-04 -5.85186036497793087e-04 3.00398464814082666e-01 1.76339898874121132e-01 3.00398464814082666e-01 1.76339898874121132e-01 -4.87998878555217033e-04 -2.03382114318838032e-04
2.31600000000000000e+10 5.87889490599997512e-05 -5.43871699104871891e-04 3.41454656457508055e-01 7.43569739047183764e-02 3.41454656457508055e-01 7.43569739047183764e-02 -3.24618011893760053e-04 3.13610714548967387e-04
2.31700000000000000e+10 2.25437388653374949e-05 6.50206958313165762e-04 3.47471890585927368e-01 -3.31976571737853318e-02 3.47471890585927368e-01 -3.31976571737853318e-02 -9.54856819552007876e-04 -7.18870405348475522e-04
2.31800000000000000e+10 8.90119719718230305e-04 3.47924261038932113e-04 3.19605007927445783e-01 -1.40759821017891223e-01 3.19605007927445783e-01 -1.40759821017891223e-01 8.36567910039084646e-05 -6.61317281531999344e-04
2.31900000000000000e+10 1.42251752797177078e-03 9.88915467178537325e-04 2.59079826628128285e-01 -2.32032444566561497e-01 2.59079826628128285e-01 -2.32032444566561497e-01 6.47762852877839746e-05 5.56468542306418480e-04
2.32000000000000000e+10 6.66105615756132450e-04 6.69781415996413576e-04 1.75499427957195281e-01 -3.00198177822003309e-01 1.75499427957195281e-01 -3.00198177822003309e-01 -8.36163265004152964e-04 -2.05616366884815759e-04
2.32100000000000000e+10 -4.02308231669448908e-04 -2.81081196224391690e-04 7.25886238556141261e-02 -3.40233649322583820e-01 7.25886238556141261e-02 -3.40233649322583820e-01 7.22109091610596680e-04 8.80170847248128965e-04
2.32200000000000000e+10 8.19277584264125128e-04 5.38746426866944890e-04 -3.59715207800214223e-02 -3.47376680709735985e-01 -3.59715207800214223e-02 -3.47376680709735985e-01 4.26070519542263613e-04 -6.88152932909513889e-04
2.32300000000000000e+10 -1.41758068117868105e-03 -1.65231748438979768e-04 -1.41540527747084366e-01 -3.19151551436454295e-01 -1.41540527747084366e-01 -3.19151551436454295e-01 -9.37968567740968674e-05 8.09626901927337534e-04
2.32400000000000000e+10 -3.26799929361835386e-04 8.92543544982742727e-04 -2.32529018387298003e-01 -2.59690499772864847e-01 -2.32529018387298003e-01 -2.59690499772864847e-01 4.39403322104026107e-06 9.63026332471128013e-06
2.32500000000000000e+10 -9.76883999114484727e-04 -3.59282537453174948e-04 -3.01583355845796652e-01 -1.75359294658613746e-01 -3.01583355845796652e-01 -1.75359294658613746e-01 5.08063144232709764e-04 -2.75260763171518755e-04
2.32600000000000000e+10 -1.08687953965356555e-03 -3.53580054905778803e-04 -3.38342531066284591e-01 -7.29858983698176977e-02 -3.38342531066284591e-01 -7.29858983698176977e-02 -5.82986367237635339e-04 6.75770937890244543e-04
2.32700000000000000e+10 -3.11681287972309423e-04 2.21412497922714277e-04 -3.45941628549694624e-01 3.46174309248265880e-02 -3.45941628549694624e-01 3.46174309248265880e-02 4.31773794994969799e-04 3.06210429221562654e-04
2.32800000000000000e+10 -6.49479777859140821e-04 2.36705549901550163e-04 -3.19102957158180267e-01 1.41089976012081036e-01 -3.19102957158180267e-01 1.41089976012081036e-01 -4.47738031189254997e-04 3.26704426604554181e-04
2.32900000000000000e+10 6.48807784752138974e-04 2.00929019860125345e-04 -2.58902037773263538e-01 2.30724215725276210e-01 -2.58902037773263538e-01 2.30724215725276210e-01 1.54230377056049055e-06 -5.11830988727957889e-05
2.33000000000000000e+10 1.85154118474929014e-04 -8.16572533907267248e-04 -1.74116866751359622e-01 3.00187582413270149e-01 -1.74116866751359622e-01 3.00187582413270149e-01 -3.07968699730806761e-04 1.65579727682068636e-04
2.33100000000000000e+10 8.44871958124957271e-04 1.16955546808095927e-03 -7.32923680426318114e-02 3.40904340826541918e-01 -7.32923680426318114e-02 3.40904340826541918e-01 2.60783940338604021e-04 -6.86882932175365856e-04
2.33200000000000000e+10 -5.45108920091087507e-04 -3.99768186229481650e-04 3.58691735639600842e-02 3.45767544014061012e-01 3.58691735639600842e-02 3.45767544014061012e-01 1.22053757980496061e-03 6.10495114838729958e-04
2.33300000000000000e+10 6.37060420213332828e-04 6.08890198459523073e-04 1.41185181771321139e-01 3.17653114119199387e-01 1.41185181771321139e-01 3.17653114119199387e-01 -1.56189603818104151e-04 1.16536109706410910e-03
2.33400000000000000e+10 1.18301467020934942e-03 5.71173185459054487e-04 2.32653770043223518e-01 2.58756285090713078e-01 2.32653770043223518e-01 2.58756285090713078e-01 5.44679431033413247e-05 -5.35162206738502670e-04
2.33500000000000000e+10 -6.28394685252430321e-04 -6.96636102141338725e-04 2.99743511269307927e-01 1.73893766812259959e-01 2.99743511269307927e-01 1.73893766812259959e-01 2.55388107838325511e-04 1.01471114417199298e-04
2.33600000000000000e+10 -1.88309697703436288e-04 -3.10164442722551850e-04 3.39685275702032441e-01 7.18547842004901433e-02 3.39685275702032441e-01 7.18547842004901433e-02 -4.78322581643918947e-04 6.63550502258944993e-04
2.33700000000000000e+10 -3.65747616102079544e-04 7.80845923937378708e-04 3.45164310903545934e-01 -3.60513131458677291e-02 3.45164310903545934e-01 -3.60513131458677291e-02 5.17406441027453042e-04 -5.31268005306207618e-04
2.33800000000000000e+10 -4.51211574939437015e-04 -6.12457334234314875e-04 3.16799452578070406e-01 -1.41985389423474495e-01 3.16799452578070406e-01 -1.41985389423474495e-01 9.72547136196700576e-05 1.25689690968202152e-04
2.33900000000000000e+10 -3.56634614398276221e-04 3.76620062165648100e-04 2.57687826881907389e-01 -2.31537322381894700e-01 2.57687826881907389e-01 -2.31537322381894700e-01 1.41070854742958354e-03 6.66257994106464913e-05
2.34000000000000000e+10 1.63540448069523169e-03 4.59240519457700081e-04 1.71713737506314551e-01 -3.01005575814772997e-01 1.71713737506314551e-01 -3.01005575814772997e-01 1.01909301709519445e-04 4.39747291284804914e-04
2.34100000000000000e+10 -9.68978533296335347e-05 2.30212506318608633e-04 7.26572755388689151e-02 -3.39539426171914127e-01 7.26572755388689151e-02 -3.39539426171914127e-01 7.51839917181664516e-05 2.44875332741658963e-04
2.34200000000000000e+10 -4.44637625146754680e-04 -6.72297354259907844e-04 -3.56975976480342766e-02 -3.43136189328668684e-01 -3.56975976480342766e-02 -3.43136189328668684e-01 4.94422538107982547e-04 5.97247093337651162e-04
2.34300000000000000e+10 -1.08775028837973628e-03 2.30477431897762924e-04 -1.42103245233759279e-01 -3.16621453016294296e-01 -1.42103245233759279e-01 -3.16621453016294296e-01 5.95729647823075269e-04 1.20047269431171376e-03
2.34400000000000000e+10 -2.27493091610286006e-05 2.03744522359098772e-04 -2.32917856414159768e-01 -2.56276091121283134e-01 -2.32917856414159768e-01 -2.56276091121283134e-01 1.55838331360176461e-04 -1.71983177102451041e-04
2.34500000000000000e+10 1.21767756407577471e-03 8.02987845313603960e-04 -3.00124605076049600e-01 -1.73117612093857204e-01 -3.00124605076049600e-01 -1.73117612093857204e-01 1.69433953317903008e-05 6.08493769039646732e-04
2.34600000000000000e+10 1.25512866550521593e-03 4.05337575544764868e-04 -3.38778702595439296e-01 -7.14909676806439742e-02 -3.38778702595439296e-01 -7.14909676806439742e-02 1.07959008357763858e-03 2.77582717496005602e-04
2.34700000000000000e+10 5.16281903720440644e-05 4.92933067375108183e-04 -3.44200615582538894e-01 3.63089749581529189e-02 -3.44200615582538894e-01 3.63089749581529189e-02 -5.44169991645073836e-04 -2.05784039364235403e-04
2.34800000000000000e+10 -1.05638519418332758e-03 9.76841349846427755e-05 -3.15751278093727716e-01 1.41527043393894991e-01 -3.15751278093727716e-01 1.41527043393894991e-01 2.27134239692064358e-04 -7.97969621382998593e-04
2.34900000000000000e+10 -7.16212937054417384e-04 -4.76488139969305144e-04 -2.56847198902684259e-01 2.31290761601561951e-01 -2.56847198902684259e-01 2.31290761601561951e-01 -1.47843866039265381e-04 1.79723600210551128e-05
2.35000000000000000e+10 -1.17040951698151605e-03 -4.70049885002223224e-05 -1.72466122442412245e-01 3.00085559309781424e-01 -1.72466122442412245e-01 3.00085559309781424e-01 -1.36388657418476280e-03 -2.38928933463108690e-04
2.35100000000000000e+10 -3.14630135941232380e-04 -3.69800611331000352e-04 -7.08418473848405200e-02 3.36926656132080116e-01 -7.08418473848405200e-02 3.36926656132080116e-01 8.03446805032368002e-04 1.09065693742420658e-03
2.35200000000000000e+10 -1.32458818389056751e-03 -6.56591066732869653e-04 3.66046788931430125e-02 3.43068431813223162e-01 3.66046788931430125e-02 3.43068431813223162e-01 4.95959326650735242e-04 -7.63310595604265027e-04
2.35300000000000000e+10 3.86799248844535751e-04 -2.62161831107824990e-04 1.41488727717604734e-01 3.14812654636657918e-01 1.41488727717604734e-01 3.14812654636657918e-01 1.32097604131601329e-03 3.51544312004329457e-04
2.35400000000000000e+10 -3.79343504244851579e-04 6.42777332017266411e-04 2.32837877807534233e-01 2.55806902777291623e-01 2.32837877807534233e-01 2.55806902777291623e-01 6.38320154393025221e-04 7.12768257359791860e-05
2.35500000000000000e+10 -1.21072426413394241e-03 -6.08354323360017050e-05 3.00263549101919214e-01 1.71598376408005182e-01 3.00263549101919214e-01 1.71598376408005182e-01 2.73726314164586613e-04 4.30580858526451280e-04
2.35600000000000000e+10 -8.69687201655408798e-04 1.69642913037769156e-04 3.39372196027652562e-01 7.04195283403828143e-02 3.39372196027652562e-01 7.04195283403828143e-02 -1.41440503538136373e-04 8.77490191750999467e-05
2.35700000000000000e+10 1.22930749189086594e-03 5.90404177570724286e-04 3.42283674351419376e-01 -3.70408647365629839e-02 3.42283674351419376e-01 -3.70408647365629839e-02 -5.08362741228288000e-04 1.22517507554461202e-03
2.35800000000000000e+10 4.25665151280961104e-04 -2.68294801835603912e-04 3.14482351579333796e-01 -1.42464966326529746e-01 3.14482351579333796e-01 -1.42464966326529746e-01 8.63236737062925640e-04 7.24367126647768619e-04
2.35900000000000000e+10 -3.29578319652639069e-04 -5.88347899190090682e-04 2.53896758531046485e-01 -2.32025700021410153e-01 2.53896758531046485e-01 -2.32025700021410153e-01 8.11326768853041147e-04 -9.37428241214535187e-05
2.36000000000000000e+10 -1.85874154369165660e-04 2.40168382816694517e-04 1.71031063171963454e-01 -2.99139505340903167e-01 1.71031063171963454e-01 -2.99139505340903167e-01 -2.02205133733461567e-04 2.36653712697298556e-05
2.36100000000000000e+10 5.31573020743862494e-04 -6.32205904260108465e-04 7.04311776685288132e-02 -3.38249870083735749e-01 7.04311776685288132e-02 -3.38249870083735749e-01 -2.04948469899389083e-03 5.21518327201361820e-04
2.36200000000000000e+10 2.82218326373398672e-04 6.55824803180016705e-06 -3.92477706646131297e-02 -3.43012519917160863e-01 -3.92477706646131297e-02 -3.43012519917160863e-01 9.35701616256358896e-05 -9.31172895372894312e-05
2.36300000000000000e+10 -1.37897702680357556e-04 -4.90103773288935577e-04 -1.41695463764586638e-01 -3.15113239295755243e-01 -1.41695463764586638e-01 -3.15113239295755243e-01 -1.35942595034882941e-03 2.36490377768253535e-04
2.36400000000000000e+10 -1.74891765391202339e-04 6.52653807953810193e-04 -2.30920992127313984e-01 -2.54655348423439620e-01 -2.30920992127313984e-01 -2.54655348423439620e-01 1.55298418784222277e-03 7.57548273395939898e-05
2.36500000000000000e+10 -1.02239205881749775e-03 2.27653582517326283e-04 -3.00073788897506522e-01 -1.69213867481206454e-01 -3.00073788897506522e-01 -1.69213867481206454e-01 -9.75772271204863222e-04 -9.74757869603107220e-04
2.36600000000000000e+10 -2.37887685555714459e-04 8.84984418262462543e-04 -3.36832351841295008e-01 -6.88249785217142918e-02 -3.36832351841295008e-01 -6.88249785217142918e-02 6.74030442061975075e-04 2.64738601314767387e-04
2.36700000000000000e+10 -5.83444083389949371e-04 -5.58307552149313975e-04 -3.43022330621822635e-01 3.83251163278386445e-02 -3.43022330621822635e-01 3.83251163278386445e-02 -1.14429204016607390e-03 8.56964682827209803e-04
2.36800000000000000e+10 -5.52003136715451806e-04 2.83772214618535352e-04 -3.13315903382352379e-01 1.42498584094844810e-01 -3.13315903382352379e-01 1.42498584094844810e-01 1.21993533653428355e-04 -3.69321828554580397e-04
2.36900000000000000e+10 6.62631626375920647e-04 2.75916208527762609e-05 -2.53730019996564804e-01 2.32534316527173573e-01 -2.53730019996564804e-01 2.32534316527173573e-01 6.98228557370340051e-04 6.99843418005357772e-04
2.37000000000000000e+10 5.52963260390434215e-04 8.84746401734480591e-04 -1.70625617444079003e-01 2.98999173393904083e-01 -1.70625617444079003e-01 2.98999173393904083e-01 4.44696394034125436e-04 -3.11009099058717829e-04
2.37100000000000000e+10 -8.33915561125350572e-04 -8.28514249524521518e-04 -7.06065589518558578e-02 3.37556088819912670e-01 -7.06065589518558578e-02 3.37556088819912670e-01 -1.29398464662778211e-03 -5.85414515006273443e-04
2.37200000000000000e+10 -1.64038575662990723e-04 -5.65569300279277496e-04 3.91890672873798779e-02 3.43275184233711228e-01 3.91890672873798779e-02 3.43275184233711228e-01 3.82501115690512010e-04 1.11087313410584716e-03
2.37300000000000000e+10 -1.23468312644855376e-03 2.25261558208180956e-05 1.42238872634340124e-01 3.12614437332780881e-01 1.42238872634340124e-01 3.12614437332780881e-01 5.12075463683942119e-04 -1.23510254751605812e-04
2.37400000000000000e+10 1.47453198151487920e-04 -1.50950792265772853e-04 2.32077964390224378e-01 2.53636096712536785e-01 2.32077964390224378e-01 2.53636096712536785e-01 -5.50081970269765798e-04 -1.54059350686510440e-03
2.37500000000000000e+10 -6.76078689815339060e-04 -1.65217303537053457e-04 2.99408905392029856e-01 1.69642833569382423e-01 2.99408905392029856e-01 1.69642833569382423e-01 9.98478101294175864e-04 1.80725033943411763e-04
2.37600000000000000e+10 1.28228596006168725e-03 -9.22172660755153791e-04 3.35720402328247847e-01 6.82317822448329642e-02 3.35720402328247847e-01 6.82317822448329642e-02 1.85588203708229036e-04 3.15574862498151456e-04
2.37700000000000000e+10 1.36189071064216115e-03 -6.45925141108067606e-04 3.40303780113013599e-01 -3.91074438284549492e-02 3.40303780113013599e-01 -3.91074438284549492e-02 7.43397623051450681e-05 7.71318158668259253e-05
2.37800000000000000e+10 1.16749952031745515e-03 -9.60472597630656309e-04 3.13584029162351396e-01 -1.42093866976886807e-01 3.13584029162351396e-01 -1.42093866976886807e-01 1.04639430971754173e-03 -1.42887139535140240e-03
2.37900000000000000e+10 9.76236735943623055e-05 3.66697585360125148e-04 2.53373573128581719e-01 -2.33719092994149558e-01 2.53373573128581719e-01 -2.33719092994149558e-01 1.26898414030428308e-03 -1.01334819838548180e-04
2.38000000000000000e+10 2.19938280187284243e-04 3.55459381825264629e-04 1.69679924820718919e-01 -2.99397631461015667e-01 1.69679924820718919e-01 -2.99397631461015667e-01 9.34310057125082812e-04 -1.40639449489133868e-04
2.38100000000000000e+10 -2.96754070112573935e-04 -3.68286044920867106e-04 6.85848383110588961e-02 -3.37734124751178810e-01 6.85848383110588961e-02 -3.37734124751178810e-01 9.10963944833766766e-04 -5.28369958893454002e-04
2.38200000000000000e+10 5.65152220374207244e-04 -2.40868340162094739e-04 -3.89591339459488678e-02 -3.40265154614903587e-01 -3.89591339459488678e-02 -3.40265154614903587e-01 7.75840128663111712e-04 3.77475796229899776e-04
2.38300000000000000e+10 1.05904666238429619e-03 2.72154168819401431e-06 -1.42259176224980188e-01 -3.12142667793663509e-01 -1.42259176224980188e-01 -3.12142667793663509e-01 3.61522365122236725e-04 1.58247775707431372e-04
2.38400000000000000e+10 -3.40907620486251783e-04 9.07718832155248205e-04 -2.32226506901826446e-01 -2.52822582516932681e-01 -2.32226506901826446e-01 -2.52822582516932681e-01 8.16331348827015234e-04 6.44712106895431176e-04
2.38500000000000000e+10 7.47945588045769104e-06 1.13570161000308041e-04 -2.98924071726491658e-01 -1.69547693353108736e-01 -2.98924071726491658e-01 -1.69547693353108736e-01 4.60692599539332473e-04 -8.62092245991296843e-04
2.38600000000000000e+10 -1.00325825756397290e-03 -4.39716763281036292e-04 -3.36925161973988307e-01 -6.71280696635090240e-02 -3.36925161973988307e-01 -6.71280696635090240e-02 1.70519212999344397e-04 -1.32911766018600579e-03
2.38700000000000000e+10 1.20564784788356328e-03 -1.00213358553777896e-03 -3.40769112158319232e-01 3.99293402143692452e-02 -3.40769112158319232e-01 3.99293402143692452e-02 1.04219996544089211e-03 9.02299240689683857e-04
2.38800000000000000e+10 3.78683463557437383e-04 -6.10876662174813026e-04 -3.11618813774687420e-01 1.43584775984838930e-01 -3.11618813774687420e-01 1.43584775984838930e-01 3.08850843314769903e-04 -1.32133482809126111e-03
2.38900000000000000e+10 1.26123795978620674e-04 2.99577490980407408e-04 -2.52095931567768994e-01 2.32522064893206620e-01 -2.52095931567768994e-01 2.32522064893206620e-01 -3.26376078992662028e-05 -1.26767358783001370e-04
2.39000000000000000e+10 -5.05656622770874961e-04 -2.79296032580888512e-04 -1.66945739900557028e-01 2.98799977274763429e-01 -1.66945739900557028e-01 2.98799977274763429e-01 -1.29339612098823873e-04 2.95452552356288993e-04
2.39100000000000000e+10 -5.39081372668521108e-04 -3.01736006941031719e-04 -6.77663489096594629e-02 3.36166496584590024e-01 -6.77663489096594629e-02 3.36166496584590024e-01 2.77316451529010686e-04 8.54658989595782681e-05
2.39200000000000000e+10 2.45809916146352944e-04 2.45405538262337397e-04 3.98829042984843035e-02 3.39711785306652359e-01 3.98829042984843035e-02 3.39711785306652359e-01 -8.52965382376111368e-04 7.14778350104659571e-04
2.39300000000000000e+10 3.43788379205366308e-04 9.28911557734852372e-04 1.42590399998272666e-01 3.11414614748643181e-01 1.42590399998272666e-01 3.11414614748643181e-01 3.58829475730713574e-04 6.20093331260037359e-04
2.39400000000000000e+10 -1.39093769915520061e-03 3.76710852909543112e-04 2.33187729805353378e-01 2.52556843535242992e-01 2.33187729805353378e-01 2.52556843535242992e-01 3.67867018527151892e-04 -3.04368670554683079e-04
2.39500000000000000e+10 -2.19238785576715323e-04 1.70208791435434232e-04 2.98450554751626240e-01 1.66978966606677687e-01 2.98450554751626240e-01 1.66978966606677687e-01 -3.21984310002533720e-04 9.91655194573398766e-04
2.39600000000000000e+10 4.76318904751606414e-04 8.20775957832627166e-04 3.35717031203949079e-01 6.75428010564785714e-02 3.35717031203949079e-01 6.75428010564785714e-02 1.06591685933725552e-03 1.08733869882148113e-03
2.39700000000000000e+10 -2.65427266587735765e-04 -5.23930895408568830e-04 3.40535178509006331e-01 -4.11115064820013476e-02 3.40535178509006331e-01 -4.11115064820013476e-02 1.05332399945055845e-03 -1.73136475681911074e-04
2.39800000000000000e+10 -2.92009773710323703e-04 7.69121010851162414e-04 3.11144348712714014e-01 -1.42486845439783710e-01 3.11144348712714014e-01 -1.42486845439783710e-01 -6.64791535667752639e-04 -3.17596073162469694e-04
2.39900000000000000e+10 -1.44402424620307802e-03 -1.14892440616839358e-04 2.51299291587906037e-01 -2.32381391194504794e-01 2.51299291587906037e-01 -2.32381391194504794e-01 1.59131475957950615e-04 -1.53355320376734431e-04
2.40000000000000000e+10 3.75442897931852382e-04 -1.52067487526420277e-03 1.66107425856569069e-01 -2.98401820380888583e-01 1.66107425856569069e-01 -2.98401820380888583e-01 1.62499498792022961e-04 -1.13113435338735898e-04
2.40100000000000000e+10 -1.01238938919284162e-03 4.26496219691066951e-05 6.59690214806004233e-02 -3.34648474036122690e-01 6.59690214806004233e-02 -3.34648474036122690e-01 8.79974650880367888e-04 -3.08800715286239389e-04
2.40200000000000000e+10 -9.79459072995628871e-04 -7.90749970262308039e-05 -4.01331070147394608e-02 -3.40551545513699816e-01 -4.01331070147394608e-02 -3.40551545513699816e-01 -8.90376182338464763e-04 5.89049914028429283e-05
2.40300000000000000e+10 2.66091291410855391e-04 -8.44031460494861613e-04 -1.44299512030477112e-01 -3.09345528413871640e-01 -1.44299512030477112e-01 -3.09345528413871640e-01 -8.19119334514902746e-04 -3.28591074691713140e-04
2.40400000000000000e+10 -1.23088587574071988e-03 4.15112790791391333e-04 -2.32198411432266827e-01 -2.49997795363545494e-01 -2.32198411432266827e-01 -2.49997795363545494e-01 -1.18262452261261764e-03 -3.76004358059252536e-04
2.40500000000000000e+10 1.18686111878871912e-04 -2.59508527213769260e-04 -2.98605775666912265e-01 -1.66108606001020648e-01 -2.98605775666912265e-01 -1.66108606001020648e-01 -1.39511661693882019e-03 -7.13843146144997067e-04
2.40600000000000000e+10 -2.65468180184201747e-04 4.58205805324095165e-04 -3.35933232309705621e-01 -6.61406063799671179e-02 -3.35933232309705621e-01 -6.61406063799671179e-02 2.65128262326035839e-04 -1.85881294802712615e-04
2.40700000000000000e+10 1.04526316341511670e-04 1.77136029188000111e-03 -3.38076647211492110e-01 4.11824416709485885e-02 -3.38076647211492110e-01 4.11824416709485885e-02 2.16542327289586832e-04 5.83960661138547676e-04
2.40800000000000000e+10 6.82001411883130932e-05 -9.22911397941746938e-04 -3.09400142010444801e-01 1.43703038206091344e-01 -3.09400142010444801e-01 1.43703038206091344e-01 2.07421193736205550e-04 5.67816893869163217e-04
2.40900000000000000e+10 -1.46010362859355051e-04 1.11954319300932353e-04 -2.49618506529993373e-01 2.32859860733906049e-01 -2.49618506529993373e-01 2.32859860733906049e-01 1.69782199831764195e-04 5.13957365863265315e-05
2.41000000000000000e+10 3.46618266787170949e-04 1.04507507984663854e-03 -1.66686432255336719e-01 2.97621684989738899e-01 -1.66686432255336719e-01 2.97621684989738899e-01 -5.14979366300255106e-05 2.02398445711824527e-04
2.41100000000000000e+10 6.07114794495211010e-04 3.10674627414876171e-04 -6.50189233715917914e-02 3.35273402770853324e-01 -6.50189233715917914e-02 3.35273402770853324e-01 4.83215481954721630e-04 5.48674267573271020e-04
2.41200000000000000e+10 4.82512927820344633e-04 3.96318388091223216e-04 4.15715988456443336e-02 3.38872920044822223e-01 4.15715988456443336e-02 3.38872920044822223e-01 7.09754660429320222e-04 -6.93193564113814406e-04
2.41300000000000000e+10 -5.92846008457957921e-04 2.38110461607052884e-04 1.44496711324597599e-01 3.08194206784460523e-01 1.44496711324597599e-01 3.08194206784460523e-01 1.52462154390623460e-04 -1.90178709357298996e-04
2.41400000000000000e+10 -1.84749830905590808e-04 1.16645246222711537e-04 2.32633370405227496e-01 2.47869190864492883e-01 2.32633370405227496e-01 2.47869190864492883e-01 1.77850575180661414e-04 9.68510952486949673e-04
2.41500000000000000e+10 -8.51593458009746330e-04 -9.10194847517076721e-04 2.97549637026713221e-01 1.64763613290220268e-01 2.97549637026713221e-01 1.64763613290220268e-01 6.52736397989689388e-04 2.87713879284571140e-04
2.41600000000000000e+10 -5.59112453800648381e-04 3.38772089208380146e-04 3.35231498950679163e-01 6.54055085271560976e-02 3.35231498950679163e-01 6.54055085271560976e-02 5.15319766677988433e-04 -1.61313666217616588e-04
2.41700000000000000e+10 3.60046035948215204e-04 -8.26232596866356239e-04 3.38354250264394252e-01 -4.15189636364761971e-02 3.38354250264394252e-01 -4.15189636364761971e-02 1.00179908926473541e-03 -3.00368404837212874e-04
2.41800000000000000e+10 3.58508212304027227e-04 -5.47457113470314416e-04 3.09577990153912019e-01 -1.44018971466334411e-01 3.09577990153912019e-01 -1.44018971466334411e-01 6.84588306026341934e-04 2.99666882628859025e-04
2.41900000000000000e+10 -7.48893027101287808e-05 6.58927947295193692e-04 2.48803909968969478e-01 -2.33445925073363092e-01 2.48803909968969478e-01 -2.33445925073363092e-01 -2.16733915095491631e-05 6.16375666391511613e-05
2.42000000000000000e+10 3.94843937990198724e-04 -7.31704824889047381e-05 1.64130805553035497e-01 -2.97640068303559935e-01 1.64130805553035497e-01 -2.97640068303559935e-01 -1.10114102189236870e-03 -1.79383409487521555e-04
2.42100000000000000e+10 -5.79981050174435017e-05 -1.63686530850841254e-03 6.35887801449802198e-02 -3.35089650189971389e-01 6.35887801449802198e-02 -3.35089650189971389e-01 -4.79507374802426076e-04 -3.56291748047221667e-04
2.42200000000000000e+10 2.13264302697417489e-04 -4.80140420739614746e-04 -4.17048773259045130e-02 -3.38250253980415250e-01 -4.17048773259045130e-02 -3.38250253980415250e-01 1.04437806521190130e-03 3.87133761625853539e-05
2.42300000000000000e+10 -7.79862093407541449e-04 1.15231925125526785e-04 -1.45493453595968658e-01 -3.08283891515896469e-01 -1.45493453595968658e-01 -3.08283891515896469e-01 5.04201341814917428e-04 1.14314218436447550e-04
2.42400000000000000e+10 -9.48826968231109924e-04 3.62536521440952504e-06 -2.32158704055009574e-01 -2.48530835326329608e-01 -2.32158704055009574e-01 -2.48530835326329608e-01 -1.19972789683539397e-03 -1.02490847277828499e-03
2.42500000000000000e+10 -6.91824736430450755e-04 3.93388420892764701e-04 -2.97395530734387958e-01 -1.64174147118769514e-01 -2.97395530734387958e-01 -1.64174147118769514e-01 -1.05002774334996517e-03 -5.81783634477635141e-04
2.42600000000000000e+10 -8.05232039206198121e-05 -2.29641229345316331e-04 -3.33765992176041915e-01 -6.43936089149916013e-02 -3.33765992176041915e-01 -6.43936089149916013e-02 -9.11880414405722415e-04 -3.46043175839045236e-04
2.42700000000000000e+10 2.46249514825123809e-04 5.36106478852604859e-05 -3.36677476173423029e-01 4.29788983678031089e-02 -3.36677476173423029e-01 4.29788983678031089e-02 -1.13619034087904792e-04 9.98449553636355478e-05
2.42800000000000000e+10 -1.40850486650023591e-04 -1.38211324207880245e-03 -3.06916096051045639e-01 1.44076231050006082e-01 -3.06916096051045639e-01 1.44076231050006082e-01 -9.45683742744743644e-04 1.50570715162245982e-04
2.42900000000000000e+10 4.69487151200669972e-04 5.52641785861862086e-05 -2.47916407621379176e-01 2.32139370090053643e-01 -2.47916407621379176e-01 2.32139370090053643e-01 3.79485432266432328e-04 -1.39006522448793216e-04
2.43000000000000000e+10 -5.81486659929140084e-05 -2.35681333661044631e-04 -1.64582966949004067e-01 2.96792013002020350e-01 -1.64582966949004067e-01 2.96792013002020350e-01 3.12121645835047607e-04 -6.79653377202530935e-04
2.43100000000000000e+10 2.71109852958213726e-04 -7.17591952356064948e-04 -6.40895961104496759e-02 3.33848814397823157e-01 -6.40895961104496759e-02 3.33848814397823157e-01 -1.11429090993461701e-03 4.96202671746508303e-04
2.43200000000000000e+10 1.57983589279961112e-04 3.74480318315392551e-04 4.28302671973588220e-02 3.37064459173558761e-01 4.28302671973588220e-02 3.37064459173558761e-01 -1.16897426125802599e-03 1.50655929832746254e-03
2.43300000000000000e+10 -8.12126271158607974e-04 -1.53667898097000459e-04 1.43071593204622566e-01 3.06330671110685460e-01 1.43071593204622566e-01 3.06330671110685460e-01 1.99184564711668224e-04 -1.26436474340567212e-03
2.43400000000000000e+10 1.24259380406955194e-04 1.11128623504369453e-03 2.32171377568216403e-01 2.47305493133299747e-01 2.32171377568216403e-01 2.47305493133299747e-01 4.50521181125764186e-04 -1.22313139732430412e-04
2.43500000000000000e+10 1.44537856251031869e-03 -1.44434884847532925e-04 2.97166434512322108e-01 1.63843336443842025e-01 2.97166434512322108e-01 1.63843336443842025e-01 -7.02433134500991211e-04 3.90311867295306547e-04
2.43600000000000000e+10 8.29557969564190733e-04 1.83580710847172507e-05 3.32063349232856075e-01 6.26217374989708614e-02 3.32063349232856075e-01 6.26217374989708614e-02 -1.58833107369949259e-03 5.06259964800523767e-04
2.43700000000000000e+10 6.06282651664316130e-04 -1.25549281482804811e-03 3.36451339994973508e-01 -4.32894322158481476e-02 3.36451339994973508e-01 -4.32894322158481476e-02 -9.19731780884891275e-04 5.92707552171451183e-04
2.43800000000000000e+10 -3.79301046816023300e-04 1.12468150303016287e-03 3.06667177276881531e-01 -1.43947503297307960e-01 3.06667177276881531e-01 -1.43947503297307960e-01 -1.70953809745197219e-04 6.75739853615363252e-04
2.43900000000000000e+10 2.82727571944631282e-04 7.80609551136777959e-04 2.46457927739071242e-01 -2.33401653876493698e-01 2.46457927739071242e-01 -2.33401653876493698e-01 -1.27179843830040897e-03 -1.18303859614240841e-03
2.44000000000000000e+10 -1.12354619568028427e-03 -1.07958979398917534e-03 1.63522207563952165e-01 -2.97908144269454944e-01 1.63522207563952165e-01 -2.97908144269454944e-01 -4.77241202773510595e-04 -7.93298609276256840e-04
2.44100000000000000e+10 -4.32356954847196271e-04 -5.24091229403874837e-05 6.09811134629322099e-02 -3.31720888471578101e-01 6.09811134629322099e-02 -3.31720888471578101e-01 -1.01925929214597300e-03 -1.36913143937666834e-04
2.44200000000000000e+10 3.16629122066610543e-05 1.05276071766612664e-03 -4.37152979039235473e-02 -3.36743479802800116e-01 -4.37152979039235473e-02 -3.36743479802800116e-01 4.58615409389027614e-05 1.14063544320158657e-04
2.44300000000000000e+10 2.77911915252429228e-04 -1.91068521518520420e-04 -1.45421177390748058e-01 -3.06950138430083674e-01 -1.45421177390748058e-01 -3.06950138430083674e-01 1.76412909569722653e-03 2.71847631605826479e-04
2.44400000000000000e+10 -3.32240418738496328e-04 -1.54169756774575603e-04 -2.32119739068222697e-01 -2.46583621187898255e-01 -2.32119739068222697e-01 -2.46583621187898255e-01 2.37390253364787188e-04 -9.07819926273634335e-06
2.44500000000000000e+10 1.25779560939237893e-03 1.20989712589646012e-04 -2.97536447938362758e-01 -1.62464522836681780e-01 -2.97536447938362758e-01 -1.62464522836681780e-01 -4.35297271129049567e-04 -2.12544629695147238e-04
2.44600000000000000e+10 -4.19281644653993354e-04 -1.45714468669282614e-03 -3.32552540610552338e-01 -6.25505733264449110e-02 -3.32552540610552338e-01 -6.25505733264449110e-02 4.12108190043009709e-04 -2.70689216484012042e-04
2.44700000000000000e+10 -5.41619047989443602e-04 -6.37003164990738736e-05 -3.35579399623176788e-01 4.44584452894251567e-02 -3.35579399623176788e-01 4.44584452894251567e-02 -1.14632272673217744e-03 2.28503675853410012e-04
2.44800000000000000e+10 1.08491214157672078e-03 5.26400460363044562e-04 -3.04935880565865236e-01 1.44765837391428093e-01 -3.04935880565865236e-01 1.44765837391428093e-01 5.59823867239114706e-04 -5.85780113679952637e-05
2.44900000000000000e+10 -8.76211994094799971e-05 -4.03795852777840238e-04 -2.46238395743267946e-01 2.31385793142303869e-01 -2.46238395743267946e-01 2.31385793142303869e-01 3.55419293893426244e-04 -7.37801232065986063e-04
2.45000000000000000e+10 -5.17389503365341314e-04 -4.15088431885268739e-04 -1.62831846294150290e-01 2.97185625726160085e-01 -1.62831846294150290e-01 2.97185625726160085e-01 3.48766300414294489e-04 8.32688740147796399e-04
2.45100000000000000e+10 1.15575304530814618e-04 -6.96961995616788730e-04 -6.09577720311156937e-02 3.32704332860994656e-01 -6.09577720311156937e-02 3.32704332860994656e-01 -5.68313274763614508e-04 9.66663849538301778e-05
2.45200000000000000e+10 6.47627830668031008e-04 -1.09869821560803116e-03 4.34577206796438326e-02 3.35968328366974378e-01 4.34577206796438326e-02 3.35968328366974378e-01 1.68106540490498101e-05 1.29616305773242292e-03
2.45300000000000000e+10 3.09886068643026858e-04 -2.81069005269194534e-04 1.45495960570562494e-01 3.05917294131903217e-01 1.45495960570562494e-01 3.05917294131903217e-01 -5.53962961334686084e-04 -1.05881750342695429e-03
2.45400000000000000e+10 5.84965304969023892e-04 3.80598096524217117e-04 2.31836629244637771e-01 2.44344679693472400e-01 2.31836629244637771e-01 2.44344679693472400e-01 9.38317965836506294e-04 5.81094056231884156e-04
2.45500000000000000e+10 -1.39867416358148769e-03 1.10324656334343831e-03 2.97700495457563219e-01 1.60456161925728091e-01 2.97700495457563219e-01 1.60456161925728091e-01 -4.97355565932983091e-04 -8.52558948890570832e-04
2.45600000000000000e+10 -3.38843244621800485e-04 1.19455570149587628e-03 3.30992184592988958e-01 6.24966689020499816e-02 3.30992184592988958e-01 6.24966689020499816e-02 -1.22982040439530057e-04 1.47008533847611355e-03
2.45700000000000000e+10 1.40846452523351391e-04 2.64335027718659707e-04 3.35402886622881091e-01 -4.32853496125092108e-02 3.35402886622881091e-01 -4.32853496125092108e-02 7.55016119294596617e-04 -5.15873794072503741e-04
2.45800000000000000e+10 -1.10170512817050310e-04 6.14218645866845825e-04 3.04782771566557198e-01 -1.44774971649110878e-01 3.04782771566557198e-01 -1.44774971649110878e-01 2.70857016598554073e-04 9.94468253784070669e-04
2.45900000000000000e+10 2.18927258084959192e-04 -2.33236319911680948e-05 2.45716445273563483e-01 -2.32409798413274776e-01 2.45716445273563483e-01 -2.32409798413274776e-01 1.58858065739756604e-04 8.35495706250670368e-04
2.46000000000000000e+10 -5.56023145916855637e-04 8.94136996721435441e-04 1.61197197941644277e-01 -2.97352654790602799e-01 1.61197197941644277e-01 -2.97352654790602799e-01 -1.25761773265279037e-03 -2.17784851148949824e-04
2.46100000000000000e+10 -8.68098973128777845e-04 5.26229075328654250e-04 6.09189801476649750e-02 -3.32125202624135474e-01 6.09189801476649750e-02 -3.32125202624135474e-01 -5.82287800839216180e-05 4.90345644769375012e-05
2.46200000000000000e+10 9.16448544878977270e-04 -8.02504542703067164e-04 -4.44655226775416204e-02 -3.34421177868888531e-01 -4.44655226775416204e-02 -3.34421177868888531e-01 -1.45967140629779787e-04 6.03793121967487363e-04
2.46300000000000000e+10 5.37480427016222306e-04 4.62382767440326354e-04 -1.45327920017913059e-01 -3.04279898518826419e-01 -1.45327920017913059e-01 -3.04279898518826419e-01 4.48286519431189247e-04 -1.84348556531395544e-04
2.46400000000000000e+10 7.43921601626761791e-04 5.15922426948327076e-06 -2.32098115779165476e-01 -2.43314496269401714e-01 -2.32098115779165476e-01 -2.43314496269401714e-01 6.85493792541373201e-06 -7.23562153710843934e-04
2.46500000000000000e+10 -3.66203660443987697e-04 -7.93329680889366760e-04 -2.97613791030301389e-01 -1.60673153921842060e-01 -2.97613791030301389e-01 -1.60673153921842060e-01 5.24718685755990485e-04 2.83677815691023652e-04
2.46600000000000000e+10 1.00994980321232735e-04 -8.41728167669960302e-04 -3.31019610785863339e-01 -6.02106383689925903e-02 -3.31019610785863339e-01 -6.02106383689925903e-02 -8.44954644355383369e-05 -7.97666627671313839e-04
2.46700000000000000e+10 3.14260350867160050e-04 -6.52482806572537185e-04 -3.33973068248519578e-01 4.44811957386226572e-02 -3.33973068248519578e-01 4.44811957386226572e-02 -1.03537999005993888e-03 3.56984422034029220e-04
2.46800000000000000e+10 -2.22715803240045669e-04 3.83516909124983769e-04 -3.05226567599456156e-01 1.45452776263051808e-01 -3.05226567599456156e-01 1.45452776263051808e-01 4.57377398628741380e-05 2.10199695486862652e-03
2.46900000000000000e+10 2.14222832621702771e-03 5.24256220291551456e-04 -2.42907886719089999e-01 2.33107092608174249e-01 -2.42907886719089999e-01 2.33107092608174249e-01 9.86052441622928180e-04 6.63431508819300846e-04
2.47000000000000000e+10 -1.66622283492441576e-04 -6.09477515585131859e-04 -1.60340628260053270e-01 2.96370200964512553e-01 -1.60340628260053270e-01 2.96370200964512553e-01 -2.76301791955041920e-04 3.63988267217259806e-04
2.47100000000000000e+10 5.25675696759006039e-04 -3.19514064772620174e-04 -6.09843133664214540e-02 3.31499126730995686e-01 -6.09843133664214540e-02 3.31499126730995686e-01 1.69322440959409422e-03 3.49444307360853752e-04
2.47200000000000000e+10 -3.55694534555326964e-04 2.53797975644346288e-04 4.49800847567838266e-02 3.32912863973325257e-01 4.49800847567838266e-02 3.32912863973325257e-01 8.70180241244928134e-04 -6.96028936763241641e-04
2.47300000000000000e+10 3.16517329795772768e-04 -1.00239239324479974e-03 1.46725690933825981e-01 3.04375021200014417e-01 1.46725690933825981e-01 3.04375021200014417e-01 -1.54841433429590142e-03 1.27177693224343101e-04
2.47400000000000000e+10 -2.19641433500237734e-04 7.61013331027923985e-04 2.32603541177430151e-01 2.42971147414094785e-01 2.32603541177430151e-01 2.42971147414094785e-01 2.29225571994212278e-05 1.48052133571262366e-04
2.47500000000000000e+10 1.23363424418794043e-03 1.74420242318503777e-04 2.95954392739918526e-01 1.60203973220296114e-01 2.95954392739918526e-01 1.60203973220296114e-01 2.00779090035751014e-04 3.30727687019401716e-04
2.47600000000000000e+10 1.22689276614529460e-03 1.77642322024407971e-04 3.29548387795675912e-01 5.94012084568150828e-02 3.29548387795675912e-01 5.94012084568150828e-02 -9.85936285327334216e-04 -2.67691641541776485e-04
2.47700000000000000e+10 -2.63099028318362395e-04 2.82119535941482112e-04 3.32614350817339477e-01 -4.49426096749285867e-02 3.32614350817339477e-01 -4.49426096749285867e-02 -8.38973743543110456e-04 -1.92564993329438663e-04
2.47800000000000000e+10 1.73655982255862005e-04 6.74336531742848635e-04 3.03821886487370851e-01 -1.46803004404133602e-01 3.03821886487370851e-01 -1.46803004404133602e-01 -8.92861192801465008e-04 6.14836531280292010e-04
2.47900000000000000e+10 8.16289807522465227e-04 6.85770527040516957e-04 2.41967444576464547e-01 -2.31870309035022676e-01 2.41967444576464547e-01 -2.31870309035022676e-01 -3.88230889840842925e-04 -6.46051042452122030e-04
2.48000000000000000e+10 7.31984902509141399e-04 8.19921601902724967e-04 1.59269934423880599e-01 -2.96330503765179165e-01 1.59269934423880599e-01 -2.96330503765179165e-01 2.23551403272756465e-05 3.46620776042186037e-04
2.48100000000000000e+10 -1.60448811516377839e-05 3.98805319703582741e-04 5.93324008940325151e-02 -3.30765378935261312e-01 5.93324008940325151e-02 -3.30765378935261312e-01 -8.73994302372017515e-04 3.06323744548127363e-04
2.48200000000000000e+10 8.69220546951934240e-04 -9.46248598325112556e-05 -4.53896431086654104e-02 -3.33486456466947467e-01 -4.53896431086654104e-02 -3.33486456466947467e-01 -1.30024628527532975e-03 2.80779854387561991e-04
2.48300000000000000e+10 7.30599590486522813e-04 6.15915231642043411e-04 -1.47392991247072946e-01 -3.02052285232798867e-01 -1.47392991247072946e-01 -3.02052285232798867e-01 4.73178001980569668e-04 -8.92825986559155066e-05
2.48400000000000000e+10 -9.53713266620576875e-04 1.06309922368495258e-03 -2.31258315271049120e-01 -2.42647197002518078e-01 -2.31258315271049120e-01 -2.42647197002518078e-01 8.74731144741857725e-04 -1.45467170883256203e-04
2.48500000000000000e+10 7.10314127279592440e-04 -1.72173858203026296e-03 -2.95624237699603165e-01 -1.58113489926043349e-01 -2.95624237699603165e-01 -1.58113489926043349e-01 -8.93436668932612700e-04 2.74162072090194771e-05
2.48600000000000000e+10 -7.66191443220643940e-04 -5.76846594579862992e-04 -3.29503784258433907e-01 -5.98079783399603354e-02 -3.29503784258433907e-01 -5.98079783399603354e-02 3.61878909221457882e-04 4.46379310403498969e-04
2.48700000000000000e+10 3.33180634463587548e-04 5.60028744803768965e-04 -3.33012422075550818e-01 4.55282261949342751e-02 -3.33012422075550818e-01 4.55282261949342751e-02 -3.59898974162447746e-04 -3.91882197825327923e-04
2.48800000000000000e+10 -2.52549489077165672e-04 -8.44383829397718239e-04 -3.01440702350226075e-01 1.46963445491028660e-01 -3.01440702350226075e-01 1.46963445491028660e-01 8.60063309050292297e-04 -1.01771190018792895e-04
2.48900000000000000e+10 1.44876798138639717e-03 9.68487942915506063e-04 -2.41626570569702076e-01 2.32921426360932021e-01 -2.41626570569702076e-01 2.32921426360932021e-01 2.13420246416403531e-04 -1.84958665190865755e-04
2.49000000000000000e+10 -5.13443150765625607e-04 9.14017322344918594e-04 -1.59271304860789470e-01 2.96587439165522881e-01 -1.59271304860789470e-01 2.96587439165522881e-01 4.63859242463265074e-04 -3.07021642771239866e-04
2.49100000000000000e+10 -1.17397785364165680e-03 1.50371931088513202e-03 -5.88886743659896225e-02 3.30550626136811410e-01 -5.88886743659896225e-02 3.30550626136811410e-01 5.99436263710639898e-05 1.64765535534002806e-03
2.49200000000000000e+10 3.79213020656475055e-04 1.23466636218963895e-05 4.63464434853214508e-02 3.32131944607280738e-01 4.63464434853214508e-02 3.32131944607280738e-01 6.55163121042084398e-04 -9.08497377016047585e-04
2.49300000000000000e+10 7.40338791435006288e-04 -4.42505036856524878e-04 1.46370268372216977e-01 3.00943376076464375e-01 1.46370268372216977e-01 3.00943376076464375e-01 -7.75340346088136136e-04 1.52789108351511754e-04
2.49400000000000000e+10 2.99402095673033776e-04 4.77331374690653790e-05 2.32866112457638968e-01 2.41347884717690475e-01 2.32866112457638968e-01 2.41347884717690475e-01 1.53587001482243288e-04 2.31121803972085234e-04
2.49500000000000000e+10 3.90794855404569524e-04 -2.71319009143248071e-04 2.94644288018355349e-01 1.57458631298609958e-01 2.94644288018355349e-01 1.57458631298609958e-01 -2.34711035191840107e-04 -1.04605694238424861e-03
2.49600000000000000e+10 1.16968450538544903e-03 -1.04424390744873728e-03 3.29526885613633580e-01 5.86351379963618510e-02 3.29526885613633580e-01 5.86351379963618510e-02 3.47747269303464541e-04 5.75403158894550559e-04
2.49700000000000000e+10 -4.95122354110713266e-04 -2.57893911378762205e-04 3.32367852807558872e-01 -4.81423023655580401e-02 3.32367852807558872e-01 -4.81423023655580401e-02 9.29726255736268935e-05 -6.98898114169888484e-04
2.49800000000000000e+10 -6.54652359438205795e-04 -7.74068068057625226e-05 3.02015026702375677e-01 -1.46903508344080863e-01 3.02015026702375677e-01 -1.46903508344080863e-01 -1.82773301216768115e-03 -1.01832067166750533e-03
2.49900000000000000e+10 -6.70880301903841445e-04 -1.22400374220349591e-03 2.41240700109385198e-01 -2.32988921808234717e-01 2.41240700109385198e-01 -2.32988921808234717e-01 -7.71512609622702710e-04 -4.63579659328726369e-04
2.50000000000000000e+10 -9.12119427326877198e-04 9.07558190191431764e-04 1.55799589800070359e-01 -2.95528533334167176e-01 1.55799589800070359e-01 -2.95528533334167176e-01 -3.76934146232892487e-04 -3.19335834531138331e-04
2.50100000000000000e+10 4.74948901810248839e-05 -4.04900090514327671e-04 5.67311451930141639e-02 -3.29016845276344061e-01 5.67311451930141639e-02 -3.29016845276344061e-01 2.80159489928121115e-04 5.53667855858055958e-04
2.50200000000000000e+10 3.39649903153573548e-04 -4.35232661483231982e-04 -4.65846246209819514e-02 -3.31764527443781709e-01 -4.65846246209819514e-02 -3.31764527443781709e-01 -7.94011152243650369e-04 2.62562942182896952e-04
2.50300000000000000e+10 2.76286836457010146e-04 -5.28307786179868272e-04 -1.47795940244324520e-01 -3.02058789218284607e-01 -1.47795940244324520e-01 -3.02058789218284607e-01 -8.01875040909676541e-05 2.63271429235813919e-04
2.50400000000000000e+10 1.36697104049702579e-04 -9.39330343174926349e-04 -2.31491206838186359e-01 -2.39514662295403857e-01 -2.31491206838186359e-01 -2.39514662295403857e-01 8.00248030874192349e-04 7.79584335543538533e-04
2.50500000000000000e+10 5.22200204621085383e-04 1.32467661714649829e-03 -2.94436485451052943e-01 -1.56465866349116828e-01 -2.94436485451052943e-01 -1.56465866349116828e-01 -6.47384007039236145e-04 -1.31329657000911460e-03
2.50600000000000000e+10 -5.21313144828037828e-04 -1.03235574118687489e-03 -3.29242871780924928e-01 -5.82332999707128179e-02 -3.29242871780924928e-01 -5.82332999707128179e-02 7.58924098935515176e-04 1.39816588292101152e-03
2.50700000000000000e+10 4.48716300557108706e-04 7.66881080862296099e-04 -3.30598680949776236e-01 4.80505981992085801e-02 -3.30598680949776236e-01 4.80505981992085801e-02 1.10460625023163050e-03 -3.45311601394390397e-04
2.50800000000000000e+10 3.66688935383834241e-04 -1.06835599684212135e-04 -2.99765100398640238e-01 1.47029222610453536e-01 -2.99765100398640238e-01 1.47029222610453536e-01 -2.48827759246970166e-04 -1.25106527271945183e-03
2.50900000000000000e+10 6.58141521221656980e-04 2.70604443959235016e-04 -2.40254696743022245e-01 2.32028263576695704e-01 -2.40254696743022245e-01 2.32028263576695704e-01 4.69820242793207222e-04 -5.47091888588597652e-04
2.51000000000000000e+10 5.24934251903759583e-04 5.21944947439565701e-04 -1.55631708532160046e-01 2.95923039623183892e-01 -1.55631708532160046e-01 2.95923039623183892e-01 8.78660286484376661e-04 7.20151597931138776e-04
2.51100000000000000e+10 1.28918065421527788e-03 -3.52112884605756613e-04 -5.74872962291165940e-02 3.28209612601120582e-01 -5.74872962291165940e-02 3.28209612601120582e-01 4.75177921665798173e-04 5.33362900428748497e-04
2.51200000000000000e+10 -5.00773288346057031e-04 -4.84413540807267023e-04 4.79408679372549523e-02 3.29278721483049208e-01 4.79408679372549523e-02 3.29278721483049208e-01 -2.30418312341873640e-04 -6.90919249638593017e-04
2.51300000000000000e+10 -3.57938312520723792e-04 2.13845677672900078e-04 1.47269776768726934e-01 2.98708186535002862e-01 1.47269776768726934e-01 2.98708186535002862e-01 4.47285044926076054e-04 9.25533011786501981e-04
2.51400000000000000e+10 1.40312368565053878e-04 2.03946089888611408e-04 2.32668688564120513e-01 2.39101254886685072e-01 2.32668688564120513e-01 2.39101254886685072e-01 8.88382978162197785e-04 -1.51564665855803888e-03
2.51500000000000000e+10 8.50399741895363774e-04 5.33607634142937992e-04 2.95344510866039245e-01 1.56773015126518978e-01 2.95344510866039245e-01 1.56773015126518978e-01 -1.02793681851472900e-03 1.23401050465175573e-03
2.51600000000000000e+10 -1.68386895105427053e-03 -7.78116571324691145e-04 3.28493106798112444e-01 5.75988261309309038e-02 3.28493106798112444e-01 5.75988261309309038e-02 4.82778318264335139e-04 -8.87577339292979417e-04
2.51700000000000000e+10 -7.49110686823353713e-04 -6.49448087298075351e-05 3.30867912362885985e-01 -4.71076216739539574e-02 3.30867912362885985e-01 -4.71076216739539574e-02 -6.14615483611216282e-04 8.18829446991800429e-04
2.51800000000000000e+10 1.00159660847689452e-03 7.46259540819973317e-04 2.99846399562729016e-01 -1.47617867483592680e-01 2.99846399562729016e-01 -1.47617867483592680e-01 6.11903632445231506e-04 9.68983543141990994e-04
2.51900000000000000e+10 -5.23651479186682607e-04 -1.09711358814339766e-04 2.39729580782533563e-01 -2.33458327132903515e-01 2.39729580782533563e-01 -2.33458327132903515e-01 -8.14582937047942822e-05 -3.42205353589298948e-04
2.52000000000000000e+10 -7.92953699771255748e-05 -1.67987329214939465e-03 1.54912864558717472e-01 -2.95997056357710453e-01 1.54912864558717472e-01 -2.95997056357710453e-01 -9.67632370591629603e-04 -1.31163000060793443e-04
2.52100000000000000e+10 5.48492619508690583e-04 6.36197552238551133e-04 5.69280696140176332e-02 -3.28042781884676338e-01 5.69280696140176332e-02 -3.28042781884676338e-01 6.76557486211352369e-04 2.13512525172423161e-03
2.52200000000000000e+10 -1.78171514510196491e-04 -3.67271544106219662e-05 -4.86988713990435876e-02 -3.28316162802110012e-01 -4.86988713990435876e-02 -3.28316162802110012e-01 -3.55666191199115764e-04 -1.56243798205699981e-03
2.52300000000000000e+10 1.09918588932547299e-03 1.08723948351823699e-03 -1.46975107320049980e-01 -2.99362836495830620e-01 -1.46975107320049980e-01 -2.99362836495830620e-01 -1.02144756213878887e-04 5.60971786950193872e-04
2.52400000000000000e+10 -3.54185643128950782e-04 1.19714313198375573e-04 -2.33617764058470123e-01 -2.37110470908892007e-01 -2.33617764058470123e-01 -2.37110470908892007e-01 -1.98867877081299684e-04 -2.09933580294991269e-04
2.52500000000000000e+10 -3.63662502446809367e-04 6.02595334296938154e-04 -2.93917176512234368e-01 -1.55290786335808589e-01 -2.93917176512234368e-01 -1.55290786335808589e-01 -1.13811502660428744e-03 5.87047352505972375e-04
2.52600000000000000e+10 8.50953463337293354e-06 9.02149405634595451e-04 -3.26962213961100867e-01 -5.47457983359012981e-02 -3.26962213961100867e-01 -5.47457983359012981e-02 4.54088884437402310e-05 -3.24533102528240582e-05
2.52700000000000000e+10 -2.09497941398126909e-04 -4.47044626828440130e-04 -3.30366676146472138e-01 4.73711370755944550e-02 -3.30366676146472138e-01 4.73711370755944550e-02 7.02908104949063247e-04 8.42883617737976440e-04
2.52800000000000000e+10 -8.34814316000210990e-05 6.00775309679965055e-04 -2.98449013125569373e-01 1.47091190872400523e-01 -2.98449013125569373e-01 1.47091190872400523e-01 6.36332939189396046e-04 3.83091255662641457e-04
2.52900000000000000e+10 -3.49042938192601715e-05 -3.91860263172809072e-04 -2.38554251676596940e-01 2.32471706759582702e-01 -2.38554251676596940e-01 2.32471706759582702e-01 3.21579883430163393e-04 -9.93565231960474691e-05
2.53000000000000000e+10 6.99586998823813135e-04 1.62026388949717469e-04 -1.54342274835181203e-01 2.94657458466100031e-01 -1.54342274835181203e-01 2.94657458466100031e-01 1.31615903755762749e-03 6.40242406105012750e-04
2.53100000000000000e+10 -7.61135189723387306e-04 -1.27591536111458016e-03 -5.37247094574110073e-02 3.28762729623675198e-01 -5.37247094574110073e-02 3.28762729623675198e-01 -2.43263437998864058e-04 -4.99872872665070795e-04
2.53200000000000000e+10 1.52864405384164838e-03 -9.22072896302400481e-04 4.90152242312315092e-02 3.29801040458450601e-01 4.90152242312315092e-02 3.29801040458450601e-01 -9.83678763669443610e-05 1.79825385348727313e-04
2.53300000000000000e+10 -6.35589660663046395e-04 3.80218646215394764e-04 1.47787163503207003e-01 2.98224490533309239e-01 1.47787163503207003e-01 2.98224490533309239e-01 -1.00539023554906235e-03 1.03982632136816037e-03
2.53400000000000000e+10 -4.59181723852285098e-04 6.57337372323110085e-04 2.33673021892837729e-01 2.36358290840579743e-01 2.33673021892837729e-01 2.36358290840579743e-01 -5.26194637539543195e-04 3.74699329166518720e-05
2.53500000000000000e+10 9.31882596818049062e-04 -5.05916228726617859e-04 2.94501237727163523e-01 1.53502822966283009e-01 2.94501237727163523e-01 1.53502822966283009e-01 1.14467521060827325e-04 3.17390876471345014e-04
2.53600000000000000e+10 1.02757297187893779e-04 -4.75659986976411210e-04 3.27010024133401411e-01 5.44639567277827030e-02 3.27010024133401411e-01 5.44639567277827030e-02 7.48199509349922439e-04 8.48615025975035049e-05
2.53700000000000000e+10 -2.91211252728155393e-04 5.08226368880010273e-04 3.27874161035556000e-01 -4.93146820475691833e-02 3.27874161035556000e-01 -4.93146820475691833e-02 9.79747598088067783e-04 -1.58397677352102611e-04
2.53800000000000000e+10 -3.33615771502005507e-04 -4.37061796238903677e-04 2.96181695945856749e-01 -1.49584268490478872e-01 2.96181695945856749e-01 -1.49584268490478872e-01 -3.47405675905960445e-04 1.90439926700363809e-04
2.53900000000000000e+10 4.94550163371060346e-04 2.48084010212146861e-04 2.36263802987067367e-01 -2.31815140185408497e-01 2.36263802987067367e-01 -2.31815140185408497e-01 2.12795481175127844e-04 -7.20565865747751751e-04
2.54000000000000000e+10 4.94592413766802691e-04 -5.76985758109317963e-04 1.53642586714374002e-01 -2.93774269645261876e-01 1.53642586714374002e-01 -2.93774269645261876e-01 1.12335810666703423e-03 -4.07819772885598423e-04
2.54100000000000000e+10 8.72565838792805889e-04 -2.95575819521214306e-04 5.46351591164205008e-02 -3.27299137771463078e-01 5.46351591164205008e-02 -3.27299137771463078e-01 -4.83990919314353598e-04 -1.06473656661423659e-03
2.54200000000000000e+10 -5.08771551919354821e-05 -9.65466831146593284e-04 -5.02606389627961794e-02 -3.28000679596446632e-01 -5.02606389627961794e-02 -3.28000679596446632e-01 -3.67542534970847622e-04 -1.39737500113129288e-04
2.54300000000000000e+10 6.07609862083721198e-04 5.33387018091748769e-04 -1.48250058386851374e-01 -2.97184056259194362e-01 -1.48250058386851374e-01 -2.97184056259194362e-01 -3.55202184236430357e-04 3.31651794450957737e-04
2.54400000000000000e+10 1.67381434233357526e-04 -1.91574928450967711e-03 -2.33417387155827410e-01 -2.37434624581588566e-01 -2.33417387155827410e-01 -2.37434624581588566e-01 7.09569705526963087e-04 7.44457627262878267e-04
2.54500000000000000e+10 -2.86869721689568133e-05 1.07022131393968208e-03 -2.92962270261747648e-01 -1.52221787941947684e-01 -2.92962270261747648e-01 -1.52221787941947684e-01 -7.64965671551511494e-04 -9.20808870779517676e-04
2.54600000000000000e+10 -5.97823227244718416e-04 -8.37637811968078836e-04 -3.27268726566255885e-01 -5.41979537009578405e-02 -3.27268726566255885e-01 -5.41979537009578405e-02 1.46747364925131640e-04 4.27005573096144483e-04
2.54700000000000000e+10 2.86356778998708165e-05 1.03842978988072412e-04 -3.27584950751970361e-01 5.04263361952101974e-02 -3.27584950751970361e-01 5.04263361952101974e-02 8.09755826257743108e-04 5.28893248892815489e-05
2.54800000000000000e+10 4.39634696910641120e-04 6.21962820650415237e-04 -2.96962093141427463e-01 1.49549691045699457e-01 -2.96962093141427463e-01 1.49549691045699457e-01 4.68219728588887811e-06 -2.67284494123233660e-04
2.54900000000000000e+10 -1.07150910079115169e-03 6.65356339216610941e-04 -2.34298005890404587e-01 2.31915588847984605e-01 -2.34298005890404587e-01 2.31915588847984605e-01 -4.94267522022302720e-04 2.72080097744945503e-04
2.55000000000000000e+10 3.58479337637573859e-04 -8.17484002206656998e-04 -1.52237775804710068e-01 2.94231378643498631e-01 -1.52237775804710068e-01 2.94231378643498631e-01 -3.01933419789172063e-04 -8.90077748294414248e-04
2.55100000000000000e+10 -1.18109949655667307e-03 -3.23127010209460161e-04 -5.37679799971032268e-02 3.26955511476042127e-01 -5.37679799971032268e-02 3.26955511476042127e-01 -1.28890811921007634e-04 -3.58058780975819353e-04
2.55200000000000000e+10 2.62252773850255559e-04 9.01813273672932522e-04 5.09378914804844707e-02 3.27860708558584790e-01 5.09378914804844707e-02 3.27860708558584790e-01 1.06981995418479786e-03 6.55760713099939175e-05
2.55300000000000000e+10 1.83563102390362702e-03 -1.07780392297338821e-04 1.47432387410675353e-01 2.95852913884383339e-01 1.47432387410675353e-01 2.95852913884383339e-01 1.53483631910985522e-03 -7.51523940306718754e-05
2.55400000000000000e+10 3.70893088630715954e-04 -3.23593015157123932e-04 2.33232518412153367e-01 2.34659262796308887e-01 2.33232518412153367e-01 2.34659262796308887e-01 -1.33147103463287272e-04 -9.87388857204572366e-04
2.55500000000000000e+10 3.99465553476684187e-05 -1.90004225874807077e-04 2.94473676512113314e-01 1.52138486766302733e-01 2.94473676512113314e-01 1.52138486766302733e-01 3.52803652650978024e-04 7.66588311363629446e-04
2.55600000000000000e+10 -5.99739060598434648e-04 9.52248076694624197e-05 3.25837958267916727e-01 5.34374478822843002e-02 3.25837958267916727e-01 5.34374478822843002e-02 -5.98900085044693810e-04 -6.54685762220855887e-04
2.55700000000000000e+10 -3.81520949824677941e-04 -8.16847115796652209e-04 3.25884328080278285e-01 -5.08131442575638845e-02 3.25884328080278285e-01 -5.08131442575638845e-02 -6.08744811622251433e-04 -1.88346175070329197e-03
2.55800000000000000e+10 8.18155088554986900e-04 -7.36176326225270383e-04 2.95635958315750902e-01 -1.48292583452237059e-01 2.95635958315750902e-01 -1.48292583452237059e-01 -2.51402274951903221e-04 1.43998519543142361e-03
2.55900000000000000e+10 -5.38974203491699192e-04 -1.00014502523341825e-03 2.33492057893711302e-01 -2.31706696829780845e-01 2.33492057893711302e-01 -2.31706696829780845e-01 -8.25652089125614917e-05 5.94134978300062989e-05
2.56000000000000000e+10 -1.34006493292810193e-03 8.74592094214481639e-05 1.51460626756358602e-01 -2.94680407897953911e-01 1.51460626756358602e-01 -2.94680407897953911e-01 3.15532677418402962e-05 -5.82947147137277948e-04
2.56100000000000000e+10 -6.03106708340711128e-04 -6.34487247728169126e-04 5.17075823380818353e-02 -3.25914843492649320e-01 5.17075823380818353e-02 -3.25914843492649320e-01 -5.81843504814771872e-04 1.11095305613747013e-03
2.56200000000000000e+10 7.19330735911399648e-04 -4.82574024242270888e-04 -5.01305210125378709e-02 -3.26301089594204397e-01 -5.01305210125378709e-02 -3.26301089594204397e-01 1.00717480213559704e-04 5.32331646245483270e-04
2.56300000000000000e+10 2.44857249765005950e-04 1.77651916516872077e-04 -1.48828086008664789e-01 -2.93984086597886274e-01 -1.48828086008664789e-01 -2.93984086597886274e-01 4.89429042135200595e-04 -7.24701899612896451e-04
2.56400000000000000e+10 -9.49200725470367027e-04 -7.36895104527936326e-04 -2.32680941242851713e-01 -2.34484883217873502e-01 -2.32680941242851713e-01 -2.34484883217873502e-01 -1.70969971690894992e-04 -2.16455235355189385e-04
2.56500000000000000e+10 3.02500202732310086e-04 9.65617384241932862e-04 -2.94047627811037438e-01 -1.49951942386653825e-01 -2.94047627811037438e-01 -1.49951942386653825e-01 -1.74120506180711434e-04 1.88546579961573584e-03
2.56600000000000000e+10 1.72008292590809976e-04 5.59673721634296488e-04 -3.25251610915635647e-01 -5.30340267367172200e-02 -3.25251610915635647e-01 -5.30340267367172200e-02 -5.31448745568602419e-04 -4.76573356843207807e-04
2.56700000000000000e+10 3.63110066460918134e-04 -2.56564513788393970e-04 -3.26032599478440599e-01 4.99556176384749473e-02 -3.26032599478440599e-01 4.99556176384749473e-02 -6.03346227215774238e-04 3.29451141817069617e-04
2.56800000000000000e+10 1.62015146983846047e-04 4.45525110833395143e-04 -2.94583234037958053e-01 1.49066759983329689e-01 -2.94583234037958053e-01 1.49066759983329689e-01 -7.29190025174844525e-04 8.87500655543269025e-04
2.56900000000000000e+10 1.16994369379463036e-03 -4.91074453651356804e-04 -2.33241477547641879e-01 2.32264128268143993e-01 -2.33241477547641879e-01 2.32264128268143993e-01 -6.60446070170071331e-04 4.04133465937686479e-04
2.57000000000000000e+10 5.96700906794442841e-04 2.67347162643229641e-04 -1.49854063516932479e-01 2.94564656805121505e-01 -1.49854063516932479e-01 2.94564656805121505e-01 3.07574271201335172e-04 1.16802589586211523e-03
2.57100000000000000e+10 1.21758098208548182e-04 9.30839916724781734e-04 -5.27808689363522057e-02 3.25402407099699698e-01 -5.27808689363522057e-02 3.25402407099699698e-01 -1.00661631938123077e-03 -4.26016160449701467e-04
2.57200000000000000e+10 -1.29438867537463266e-06 -6.75880354479847074e-04 5.02388319335074912e-02 3.25306549661468047e-01 5.02388319335074912e-02 3.25306549661468047e-01 -3.20207360006497085e-04 -2.20542421294865181e-04
2.57300000000000000e+10 -1.23389903161719335e-03 5.93922745991742429e-04 1.49004257238374266e-01 2.94516900981399266e-01 1.49004257238374266e-01 2.94516900981399266e-01 4.48511529562171447e-05 -5.43544740843032183e-04
2.57400000000000000e+10 -1.82515570173799515e-04 5.12162741146914057e-04 2.33127969197546858e-01 2.32923563117252458e-01 2.33127969197546858e-01 2.32923563117252458e-01 5.01532970883143570e-05 5.48363163035924884e-04
2.57500000000000000e+10 3.60764551459883851e-04 -5.38012971382563292e-04 2.93594347434409375e-01 1.49673940653505727e-01 2.93594347434409375e-01 1.49673940653505727e-01 4.34214545430000359e-04 1.39630300942606214e-03
2.57600000000000000e+10 -2.88178520766494588e-04 -4.99063267963994312e-04 3.25718081882953925e-01 5.08678852411140331e-02 3.25718081882953925e-01 5.08678852411140331e-02 6.25856461369232403e-06 1.52828163523049926e-04
2.57700000000000000e+10 1.61559520047262743e-04 -2.04791425079663375e-04 3.25120363211773566e-01 -5.10801951301102786e-02 3.25120363211773566e-01 -5.10801951301102786e-02 -2.33986810696816690e-04 3.03775996854312906e-04
2.57800000000000000e+10 3.44392597171743701e-04 1.96700813716445283e-04 2.92082553572699910e-01 -1.50806635251604260e-01 2.92082553572699910e-01 -1.50806635251604260e-01 -7.64850483673877287e-04 -5.24581422280363533e-05
2.57900000000000000e+10 -1.17666320980987856e-03 1.00527488795181322e-03 2.32981144546598101e-01 -2.32060413293598389e-01 2.32981144546598101e-01 -2.32060413293598389e-01 -3.02145941030279228e-04 -3.91231654801276049e-05
2.58000000000000000e+10 3.10674654433822225e-04 1.62975649683231335e-03 1.50407961918261612e-01 -2.93632651496434305e-01 1.50407961918261612e-01 -2.93632651496434305e-01 5.03261658028291651e-04 -6.52584711723927188e-04
2.58100000000000000e+10 -1.50871050276756014e-03 -7.69621033179136152e-04 5.03985690124845731e-02 -3.25354366570717979e-01 5.03985690124845731e-02 -3.25354366570717979e-01 7.23025417338019798e-04 6.32623813795041680e-04
2.58200000000000000e+10 -5.26751706637581429e-05 9.42138810750900251e-04 -5.10938294192983117e-02 -3.25353141238292509e-01 -5.10938294192983117e-02 -3.25353141238292509e-01 1.35567230106371697e-03 2.30902261136944729e-04
2.58300000000000000e+10 -5.36060178327781348e-04 4.87684025315102121e-04 -1.47982811231334416e-01 -2.93464326891065996e-01 -1.47982811231334416e-01 -2.93464326891065996e-01 -8.58268978265553853e-05 -9.09172236615567392e-04
2.58400000000000000e+10 -3.30024113985254486e-05 -1.37328064675594941e-04 -2.32205882625390880e-01 -2.32167882857161723e-01 -2.32205882625390880e-01 -2.32167882857161723e-01 2.54582259533398447e-03 5.53692196081728705e-04
2.58500000000000000e+10 2.04849028990419423e-05 -2.76369468127795476e-04 -2.91838464496693040e-01 -1.48178379842582003e-01 -2.91838464496693040e-01 -1.48178379842582003e-01 7.51102430999496962e-04 -9.49010440085676582e-04
2.58600000000000000e+10 1.11139402203230093e-04 -1.79084250119611500e-04 -3.24245491777102546e-01 -5.04235207876742517e-02 -3.24245491777102546e-01 -5.04235207876742517e-02 -5.92785833003723370e-04 -8.55135854483652269e-04
2.58700000000000000e+10 -1.94513649650123409e-04 -1.48581187595802299e-03 -3.25247551263331769e-01 5.14473200330778993e-02 -3.25247551263331769e-01 5.14473200330778993e-02 5.98263299002394270e-04 1.01546742669998368e-04
2.58800000000000000e+10 -7.45397203225226651e-04 2.10869788017044822e-04 -2.92262818212521314e-01 1.49724293887937648e-01 -2.92262818212521314e-01 1.49724293887937648e-01 -1.10514720690818645e-03 1.04290321476142151e-03
2.58900000000000000e+10 -6.19473938342224718e-04 1.04926555753201032e-03 -2.32729716308504586e-01 2.32741823041007739e-01 -2.32729716308504586e-01 2.32741823041007739e-01 -1.39478021012789428e-05 -1.63774868607215608e-05
2.59000000000000000e+10 -5.62868707246906661e-04 -1.45956217487766180e-03 -1.48317937114460369e-01 2.92797557800244079e-01 -1.48317937114460369e-01 2.92797557800244079e-01 8.58130324848366765e-04 2.94108320071526856e-04
2.59100000000000000e+10 9.71719677794465422e-04 6.88459252328322831e-04 -5.15272065049243930e-02 3.23346589676880514e-01 -5.15272065049243930e-02 3.23346589676880514e-01 -1.05585940904239666e-03 1.24959431172421125e-03
2.59200000000000000e+10 4.16449016246905565e-04 1.07214651269912377e-03 5.25996517256972357e-02 3.24175613654788086e-01 5.25996517256972357e-02 3.24175613654788086e-01 3.39579748886814550e-04 -4.99472278237359454e-06
2.59300000000000000e+10 4.19481585860161793e-04 -3.06450818975400946e-04 1.50743940173399649e-01 2.92520471175230223e-01 1.50743940173399649e-01 2.92520471175230223e-01 3.00203800721730483e-04 5.56584744445799110e-04
2.59400000000000000e+10 3.32885171901537433e-04 -2.80246649077928917e-05 2.32768364890374058e-01 2.30677562493031896e-01 2.32768364890374058e-01 2.30677562493031896e-01 -7.42213534313830516e-04 -2.33760227977163960e-04
2.59500000000000000e+10 1.45897595972592026e-04 9.77034225730818908e-04 2.93176883326170701e-01 1.48331155412626758e-01 2.93176883326170701e-01 1.48331155412626758e-01 -8.32761681917569400e-04 4.64189312478031349e-04
2.59600000000000000e+10 1.31625441864434531e-03 -3.14388926692560605e-04 3.24754905280978168e-01 4.97109019533118202e-02 3.24754905280978168e-01 4.97109019533118202e-02 -1.26797718534680756e-03 3.14505610808989893e-04
2.59700000000000000e+10 2.29112035820251724e-04 -2.00235588617857035e-04 3.23217534084307423e-01 -5.28827170624493331e-02 3.23217534084307423e-01 -5.28827170624493331e-02 1.12760517427430902e-03 -9.88903482357401378e-04
2.59800000000000000e+10 7.48166635592098462e-04 -1.07220379714482094e-03 2.92005716585715114e-01 -1.49506180726294041e-01 2.92005716585715114e-01 -1.49506180726294041e-01 1.61237135126023084e-04 2.41874130707401332e-04
2.59900000000000000e+10 4.99432127120670501e-04 1.20868535299028124e-03 2.31297758992845381e-01 -2.33338248489670885e-01 2.31297758992845381e-01 -2.33338248489670885e-01 -9.46708479410637372e-04 -7.32482628767803568e-04
2.60000000000000000e+10 9.34482992471055062e-05 -3.66678694904509208e-04 1.47184007306648462e-01 -2.92737718411698489e-01 1.47184007306648462e-01 -2.92737718411698489e-01 4.19537131153923691e-05 3.14285987792224349e-04
2.60100000000000000e+10 6.74089080124555540e-04 1.27394851165678325e-04 4.92302554214894827e-02 -3.24917766088365034e-01 4.92302554214894827e-02 -3.24917766088365034e-01 -9.26090060384144155e-04 1.49163309844439908e-04
2.60200000000000000e+10 -8.93940463481387136e-04 5.63028903013702581e-04 -5.24448673509970431e-02 -3.23050245259058399e-01 -5.24448673509970431e-02 -3.23050245259058399e-01 -8.80334842040686612e-04 2.96076979270633756e-04
2.60300000000000000e+10 -3.54701649468410385e-04 4.58216504183403474e-04 -1.49935838091709295e-01 -2.91027636832342673e-01 -1.49935838091709295e-01 -2.91027636832342673e-01 -6.24478938797364100e-04 3.47011526924208356e-04
2.60400000000000000e+10 -1.36530049649558950e-03 -4.62206070999686700e-06 -2.32861398411838671e-01 -2.30057239151003956e-01 -2.32861398411838671e-01 -2.30057239151003956e-01 1.16523950486589143e-04 1.24039993188318899e-03
2.60500000000000000e+10 -9.52381747763866751e-04 1.27557413766149095e-04 -2.92068119295704531e-01 -1.47576242666276475e-01 -2.92068119295704531e-01 -1.47576242666276475e-01 -8.42555625824407094e-04 -6.07629198291331427e-04
2.60600000000000000e+10 -1.31084267165560873e-03 -3.37239818448135194e-04 -3.22972742006584435e-01 -4.90319265328257800e-02 -3.22972742006584435e-01 -4.90319265328257800e-02 1.35272359960183949e-04 -2.22053910584032679e-04
2.60700000000000000e+10 8.16328880466914202e-05 6.93122026622847815e-04 -3.23782395953730595e-01 5.44088629470663443e-02 -3.23782395953730595e-01 5.44088629470663443e-02 -1.45737516988165791e-03 1.20860228655155595e-03
2.60800000000000000e+10 -2.11164743365159290e-04 -5.61640094025217594e-04 -2.90794383930429390e-01 1.50555997233435240e-01 -2.90794383930429390e-01 1.50555997233435240e-01 -6.50257368783419606e-04 8.76556719779394847e-04
2.60900000000000000e+10 -6.64183444747251797e-05 5.59709515664739781e-04 -2.29062350603130988e-01 2.32993702005458714e-01 -2.29062350603130988e-01 2.32993702005458714e-01 -7.95599744061014323e-04 -1.58054756765057592e-03
2.61000000000000000e+10 -3.25634343693145934e-06 -2.15904426981030887e-05 -1.46483933039310094e-01 2.93808962323766687e-01 -1.46483933039310094e-01 2.93808962323766687e-01 1.50753390926480053e-03 5.54635012357384584e-04
2.61100000000000000e+10 -3.71128617584090884e-04 1.23574485619217059e-04 -4.94804600569315398e-02 3.22758603973841152e-01 -4.94804600569315398e-02 3.22758603973841152e-01 5.89886409255374608e-05 -3.75971858685653299e-05
2.61200000000000000e+10 1.91500897695369887e-03 -3.65500963119050814e-04 5.27880632130687880e-02 3.23659961573046273e-01 5.27880632130687880e-02 3.23659961573046273e-01 -5.87111382948168913e-04 -2.82841753857739672e-04
2.61300000000000000e+10 -1.40678822031894876e-04 -1.39823679282004960e-03 1.49723392209209050e-01 2.89004578775081344e-01 1.49723392209209050e-01 2.89004578775081344e-01 5.24464822657691844e-04 -1.46410616742562042e-03
2.61400000000000000e+10 -6.85553522768128035e-04 -1.58450627690661446e-03 2.32864339603582493e-01 2.28516455902233268e-01 2.32864339603582493e-01 2.28516455902233268e-01 -1.69699545196707376e-04 -4.14450490770076235e-04
2.61500000000000000e+10 6.58506949031613170e-04 -2.48391580909073219e-04 2.93033140954962523e-01 1.45691375696418657e-01 2.93033140954962523e-01 1.45691375696418657e-01 2.53907330504185048e-04 1.04464936700664260e-05
2.61600000000000000e+10 -5.66058155603010112e-04 7.67762240367216215e-04 3.23003608583441404e-01 4.92076592850567082e-02 3.23003608583441404e-01 4.92076592850567082e-02 -3.41598757574517093e-04 2.69521321780415244e-04
2.61700000000000000e+10 1.59652342763763887e-04 -1.50395573861511884e-04 3.21631020025963388e-01 -5.28842962557267635e-02 3.21631020025963388e-01 -5.28842962557267635e-02 -7.33314305350240067e-05 -2.52823538795123211e-04
2.61800000000000000e+10 -3.92306393938592611e-04 1.31179456324078173e-03 2.89556718888650200e-01 -1.49964081676505823e-01 2.89556718888650200e-01 -1.49964081676505823e-01 1.41660193529000232e-03 4.23394124610549369e-04
2.61900000000000000e+10 1.13241291847852800e-03 -1.26630715417298985e-03 2.28441925350339081e-01 -2.33221792077131673e-01 2.28441925350339081e-01 -2.33221792077131673e-01 2.08387252909102903e-04 -6.48376183642982969e-04
2.62000000000000000e+10 -1.14416280373271363e-03 -9.96030463594827636e-04 1.45925113169017268e-01 -2.92382079730274247e-01 1.45925113169017268e-01 -2.92382079730274247e-01 6.91086812121184581e-04 4.32091197798518162e-06
2.62100000000000000e+10 -1.08069307823291860e-03 5.53801530302456630e-05 4.70728205160434315e-02 -3.22176762414517481e-01 4.70728205160434315e-02 -3.22176762414517481e-01 -9.87553661628528178e-04 -1.02477214661680455e-04
2.62200000000000000e+10 -1.08849896556462427e-04 -5.59615005864400722e-04 -5.47538070104704594e-02 -3.21255629012339672e-01 -5.47538070104704594e-02 -3.21255629012339672e-01 4.22484040293477745e-04 -4.58408681538191923e-04
2.62300000000000000e+10 2.65238194577306684e-04 7.77594759764166046e-05 -1.51863105516600816e-01 -2.89944272314521190e-01 -1.51863105516600816e-01 -2.89944272314521190e-01 -6.64313940744141909e-04 8.51685361393811824e-04
2.62400000000000000e+10 -2.49603643385255000e-04 6.58998642840421026e-04 -2.32984882375310565e-01 -2.28575236544597521e-01 -2.32984882375310565e-01 -2.28575236544597521e-01 6.36541558364853936e-04 -3.16011591024850094e-04
2.62500000000000000e+10 4.10724729298754478e-04 5.11034187804589751e-04 -2.90579230302991209e-01 -1.44349327563564167e-01 -2.90579230302991209e-01 -1.44349327563564167e-01 -1.54765632925242883e-03 -6.33365192800801791e-04
2.62600000000000000e+10 1.90368913405334142e-03 -3.21967053402113558e-05 -3.21809124157939164e-01 -4.63948364581126330e-02 -3.21809124157939164e-01 -4.63948364581126330e-02 -1.46494882681584045e-04 -8.74407759194454379e-05
2.62700000000000000e+10 -6.85508426075609836e-04 -4.71155588594627476e-04 -3.20585111945295320e-01 5.40370675072719478e-02 -3.20585111945295320e-01 5.40370675072719478e-02 1.03755921082296994e-03 4.49417618024256470e-04
2.62800000000000000e+10 5.25870887496058962e-04 -1.52383469742738167e-05 -2.87754868297150690e-01 1.50165087676263409e-01 -2.87754868297150690e-01 1.50165087676263409e-01 2.70355790447526487e-05 8.54878686350003629e-04
2.62900000000000000e+10 -2.66201297874277580e-04 1.62322095219196929e-04 -2.28182321791658954e-01 2.32113316682769383e-01 -2.28182321791658954e-01 2.32113316682769383e-01 -1.29950405918827726e-03 -8.03232463458496268e-04
2.63000000000000000e+10 -1.16894512216970074e-04 -8.70055802469330898e-04 -1.43667607881624249e-01 2.92674986891323929e-01 -1.43667607881624249e-01 2.92674986891323929e-01 1.43057742186283388e-03 -6.21250423376906074e-04
2.63100000000000000e+10 3.32053148252720512e-05 7.64874249260621931e-04 -4.82832676297430471e-02 3.22359344719824692e-01 -4.82832676297430471e-02 3.22359344719824692e-01 -2.04073799900243274e-04 -9.88979612600894022e-05
2.63200000000000000e+10 3.24405571012447173e-04 -2.38706429360011969e-04 5.58618408316458800e-02 3.20974593405419173e-01 5.58618408316458800e-02 3.20974593405419173e-01 1.61480530908668759e-04 5.14031211210557634e-06
2.63300000000000000e+10 9.30308791984817704e-04 -6.70355528194502000e-04 1.51649212715452619e-01 2.87391411475841019e-01 1.51649212715452619e-01 2.87391411475841019e-01 3.52220336022065681e-04 5.06751704025072670e-04
2.63400000000000000e+10 2.81341665970931019e-04 -7.62928291466095682e-04 2.32994679886744077e-01 2.27875151158148576e-01 2.32994679886744077e-01 2.27875151158148576e-01 -1.49323062750176698e-04 -4.36323829725034356e-04
2.63500000000000000e+10 1.77035828832107529e-05 -8.60633362170756707e-05 2.91191645407857080e-01 1.44375126369346046e-01 2.91191645407857080e-01 1.44375126369346046e-01 5.64931730701126521e-04 9.02596301007173047e-04
2.63600000000000000e+10 -9.97408797971886894e-04 6.20100336480379748e-04 3.21119180990591280e-01 4.63042557441819616e-02 3.21119180990591280e-01 4.63042557441819616e-02 6.54240936644134483e-04 6.37333840434132787e-04
2.63700000000000000e+10 -6.32573621627424113e-04 1.99762478375256944e-04 3.20645836457201627e-01 -5.54386507609242671e-02 3.20645836457201627e-01 -5.54386507609242671e-02 -2.56745112592964583e-04 1.13279331629343892e-03
2.63800000000000000e+10 -9.40744894353391452e-04 3.33783202738287895e-04 2.87606998291629501e-01 -1.50435486626806197e-01 2.87606998291629501e-01 -1.50435486626806197e-01 9.53208291781390050e-04 -2.63195062449977450e-05
2.63900000000000000e+10 -1.64826786123849851e-04 -2.72548828079895188e-04 2.27223071309160224e-01 -2.33568236936500889e-01 2.27223071309160224e-01 -2.33568236936500889e-01 6.34632840944747965e-04 1.23139973401699090e-04
2.64000000000000000e+10 -9.59815449207238936e-04 -1.12742303534331813e-03 1.44152280530813331e-01 -2.91239671703021064e-01 1.44152280530813331e-01 -2.91239671703021064e-01 -3.68697478053563339e-04 -6.98799093788033711e-04
2.64100000000000000e+10 7.26478226789909680e-04 2.50476285131584974e-04 4.62042658231713518e-02 -3.21320005747856130e-01 4.62042658231713518e-02 -3.21320005747856130e-01 5.04130324658565642e-04 -1.09970143794565914e-03
2.64200000000000000e+10 2.23663959032683549e-03 -4.96360027067915019e-04 -5.55831057873411999e-02 -3.19740771027014703e-01 -5.55831057873411999e-02 -3.19740771027014703e-01 -7.85375253728649142e-04 1.11336193331785442e-04
2.64300000000000000e+10 1.15779388488998285e-04 6.56072256370211575e-04 -1.50870394754905657e-01 -2.87112222456251953e-01 -1.50870394754905657e-01 -2.87112222456251953e-01 1.15725117882898285e-03 -3.00754164364162608e-04
2.64400000000000000e+10 1.07011797288435206e-03 5.57441620105645968e-04 -2.32884926236846063e-01 -2.25714290496347447e-01 -2.32884926236846063e-01 -2.25714290496347447e-01 -2.55243347776389117e-04 9.62165486378704091e-04
2.64500000000000000e+10 -8.82916920632741023e-04 1.49493749217843229e-04 -2.91760479840958376e-01 -1.43238293145680984e-01 -2.91760479840958376e-01 -1.43238293145680984e-01 -5.02475810108468794e-07 -1.61490043609810208e-04
2.64600000000000000e+10 8.00876650908448622e-04 -8.74469785356291073e-04 -3.20026651018124109e-01 -4.51466187262559854e-02 -3.20026651018124109e-01 -4.51466187262559854e-02 -6.27821895658076112e-04 -4.92330305498577198e-04
2.64700000000000000e+10 -4.30969003553893955e-04 1.79958291263950616e-03 -3.19417817847683139e-01 5.52514352911407380e-02 -3.19417817847683139e-01 5.52514352911407380e-02 3.02432805643411515e-04 -3.04991852239489857e-05
2.64800000000000000e+10 4.04271813710761958e-04 8.67648594816851533e-04 -2.87650580579202175e-01 1.52997203061043252e-01 -2.87650580579202175e-01 1.52997203061043252e-01 -8.19218201823493602e-04 3.34856800377397192e-04
2.64900000000000000e+10 6.52287760258122391e-04 3.37318038870271556e-04 -2.24835276058289901e-01 2.32918474775259898e-01 -2.24835276058289901e-01 2.32918474775259898e-01 -4.41431396910361344e-04 4.70958643398345343e-04
2.65000000000000000e+10 7.35075597118412595e-05 -4.66192283303336937e-04 -1.42040148137292183e-01 2.90198600939053364e-01 -1.42040148137292183e-01 2.90198600939053364e-01 2.48702200958906042e-04 -2.96107035479144460e-04
2.65100000000000000e+10 -6.75096896622606702e-04 2.57459231137612118e-04 -4.54466409068486690e-02 3.20167363008314110e-01 -4.54466409068486690e-02 3.20167363008314110e-01 -7.74096415147004064e-04 -1.81622342166480144e-04
2.65200000000000000e+10 3.53861797823084960e-04 7.75642852081078762e-04 5.55820475957121210e-02 3.18905770085181450e-01 5.55820475957121210e-02 3.18905770085181450e-01 -5.14898437832708527e-04 -1.96550948692676453e-04
2.65300000000000000e+10 4.13967472306328937e-05 -2.16725094373412482e-04 1.51221278936349179e-01 2.86254556276825056e-01 1.51221278936349179e-01 2.86254556276825056e-01 -8.03186082063867858e-04 -9.71935674564314723e-04
2.65400000000000000e+10 4.22113776894431764e-04 -1.27129845327796255e-04 2.32238871795285434e-01 2.24615114465781723e-01 2.32238871795285434e-01 2.24615114465781723e-01 9.23759147732693066e-04 -6.11692295309272964e-04
2.65500000000000000e+10 7.91197767616626832e-04 -1.16736128917022141e-03 2.91488220737658454e-01 1.42502653737932389e-01 2.91488220737658454e-01 1.42502653737932389e-01 -9.63238427200803970e-04 -7.59361867648725933e-04
2.65600000000000000e+10 4.26451006887506028e-04 -2.02642285867013846e-04 3.19908265580743645e-01 4.63020616918574726e-02 3.19908265580743645e-01 4.63020616918574726e-02 7.17809064178175711e-04 1.13038284265124072e-05
2.65700000000000000e+10 -7.21967718951615372e-04 7.04420191411211623e-04 3.18562128232839192e-01 -5.64783652625192589e-02 3.18562128232839192e-01 -5.64783652625192589e-02 4.85160028250323410e-04 1.40435342333763506e-05
2.65800000000000000e+10 -3.61126650106138923e-04 1.73342568927750256e-04 2.85448946215203225e-01 -1.51606366427780609e-01 2.85448946215203225e-01 -1.51606366427780609e-01 9.33916080627675781e-05 9.09737074424446567e-05
2.65900000000000000e+10 -1.15625580793670581e-04 -7.78834454437620215e-05 2.24899799543333612e-01 -2.33067271467534948e-01 2.24899799543333612e-01 -2.33067271467534948e-01 1.56202006541987580e-04 -8.59666772631177928e-04
2.66000000000000000e+10 -8.96041911100102680e-04 -3.21132721580418533e-05 1.43410959473174976e-01 -2.90140525744598810e-01 1.43410959473174976e-01 -2.90140525744598810e-01 8.17331720971667917e-04 -1.00871056092227966e-03
2.66100000000000000e+10 3.66332891848033225e-04 -1.55097539070188188e-03 4.43789567573144514e-02 -3.20699113891399545e-01 4.43789567573144514e-02 -3.20699113891399545e-01 6.97744701432424438e-04 -6.12076376439836143e-04
2.66200000000000000e+10 -3.18055752588773557e-04 -4.02313314703597405e-05 -5.62837441266877125e-02 -3.17695377628351983e-01 -5.62837441266877125e-02 -3.17695377628351983e-01 -1.38078109792618765e-04 -4.92320389754684990e-04
2.66300000000000000e+10 1.55818276789381350e-04 4.65528099643695685e-04 -1.50771443933324867e-01 -2.85538418242367420e-01 -1.50771443933324867e-01 -2.85538418242367420e-01 -2.71498562470372424e-04 -5.43851343568049804e-04
2.66400000000000000e+10 9.56616033311821160e-04 1.72360506467817185e-04 -2.32350838226876216e-01 -2.24251899466232058e-01 -2.32350838226876216e-01 -2.24251899466232058e-01 -5.84957782191525841e-04 -9.38082660289468170e-05
2.66500000000000000e+10 1.64059253609047015e-03 -5.52911443601846668e-04 -2.90033877503315551e-01 -1.40383866244359057e-01 -2.90033877503315551e-01 -1.40383866244359057e-01 -1.01262817724214176e-03 3.65299758596778954e-04
2.66600000000000000e+10 -2.21004587502650953e-04 9.42611569836101907e-04 -3.20551357991116281e-01 -4.48671743617407512e-02 -3.20551357991116281e-01 -4.48671743617407512e-02 -5.73196297052238485e-04 1.15598304909133687e-03
2.66700000000000000e+10 -5.58304721750196202e-04 -6.26049565644074083e-05 -3.17913286481300961e-01 5.68596034729680899e-02 -3.17913286481300961e-01 5.68596034729680899e-02 1.31178964529307304e-04 -1.12971497974456193e-03
2.66800000000000000e+10 5.25660361303692753e-04 8.24302222369435213e-04 -2.84759886566838039e-01 1.51901303704160107e-01 -2.84759886566838039e-01 1.51901303704160107e-01 4.93285743338942108e-05 4.97170615015973707e-04
2.66900000000000000e+10 1.04898992386658475e-03 -1.48671604676345196e-03 -2.24215673597283116e-01 2.32505727299050363e-01 -2.24215673597283116e-01 2.32505727299050363e-01 3.63547074679423541e-04 -2.03190653292902832e-04
2.67000000000000000e+10 7.41509223192896678e-04 5.58872267781130899e-04 -1.40062940202443809e-01 2.91239864752629751e-01 -1.40062940202443809e-01 2.91239864752629751e-01 -5.14148348504968127e-04 -1.33485135875168481e-05
2.67100000000000000e+10 -2.75957681740492469e-04 5.59179816962402060e-04 -4.41389131194043910e-02 3.20271768996435668e-01 -4.41389131194043910e-02 3.20271768996435668e-01 5.02586482156277539e-04 6.54490002981779838e-04
2.67200000000000000e+10 7.78677133493228487e-04 1.32606633558578083e-03 5.68177684542369651e-02 3.18633754961308080e-01 5.68177684542369651e-02 3.18633754961308080e-01 1.04578686421306780e-03 -2.12147620548793381e-04
2.67300000000000000e+10 4.47326490231619357e-04 4.26605219725392977e-04 1.51791827269420282e-01 2.83721095133288803e-01 1.51791827269420282e-01 2.83721095133288803e-01 6.60963972880648201e-04 -9.64335462646637121e-04
2.67400000000000000e+10 -1.20171273373779878e-03 3.35646409677951331e-04 2.32611299496436469e-01 2.24246274734912071e-01 2.32611299496436469e-01 2.24246274734912071e-01 -1.35478476216912593e-03 3.74584848241744657e-04
2.67500000000000000e+10 1.04687593661624697e-04 -7.73407492030261955e-04 2.91025844164299274e-01 1.40494403116571409e-01 2.91025844164299274e-01 1.40494403116571409e-01 5.17240554368678324e-04 -4.56002658545134551e-04
2.67600000000000000e+10 -1.59479811527156196e-03 -7.99875532289194622e-04 3.19607782034687093e-01 4.31433544967946142e-02 3.19607782034687093e-01 4.31433544967946142e-02 4.69863051058204049e-04 5.77858047318711228e-04
2.67700000000000000e+10 5.88051324046779127e-04 9.81889180443835611e-06 3.17658209203044328e-01 -5.77237441299639428e-02 3.17658209203044328e-01 -5.77237441299639428e-02 5.83794281356752784e-04 1.44607818105021708e-03
2.67800000000000000e+10 -9.59914247168978398e-04 -4.66820908219830457e-04 2.83873955073099260e-01 -1.51856309204711409e-01 2.83873955073099260e-01 -1.51856309204711409e-01 -4.23661682979727171e-04 5.83859666707082061e-04
2.67900000000000000e+10 -2.90395454728310115e-05 -5.07412337818489165e-04 2.23002544960337806e-01 -2.33689101760642837e-01 2.23002544960337806e-01 -2.33689101760642837e-01 -5.74927724938052438e-04 -3.72085936640910962e-04
2.68000000000000000e+10 -3.29616461895932604e-04 2.64180602674658261e-04 1.40330862592072669e-01 -2.90514245258359172e-01 1.40330862592072669e-01 -2.90514245258359172e-01 -3.70136748012680409e-04 3.23260928270093081e-04
2.68100000000000000e+10 -2.84393189160462060e-04 3.15593578936815722e-04 4.34084723179163981e-02 -3.17728086768750695e-01 4.34084723179163981e-02 -3.17728086768750695e-01 9.24044744649388000e-04 -2.96986495438313536e-04
2.68200000000000000e+10 -2.18107135871180373e-04 -2.26494273425714081e-04 -5.85154264158189510e-02 -3.16542929340916102e-01 -5.85154264158189510e-02 -3.16542929340916102e-01 -6.41285387282130529e-04 -1.68323518800644244e-04
2.68300000000000000e+10 1.11199755676862614e-04 -6.59360261058641395e-04 -1.53718531205682851e-01 -2.83346581311055612e-01 -1.53718531205682851e-01 -2.83346581311055612e-01 -5.76112683160611675e-04 -3.87600700622314439e-04
2.68400000000000000e+10 -5.88907979329439217e-04 7.76150052052277636e-06 -2.31294107676721289e-01 -2.22145642608498117e-01 -2.31294107676721289e-01 -2.22145642608498117e-01 5.61315069508648784e-04 -9.29783964151593550e-05
2.68500000000000000e+10 -5.50558292590099863e-04 -2.11656434811361783e-05 -2.90588780053683882e-01 -1.39805409457468388e-01 -2.90588780053683882e-01 -1.39805409457468388e-01 -8.60399413660985646e-04 -2.28542986848216298e-04
2.68600000000000000e+10 6.62478461711865093e-05 1.16193137318122304e-04 -3.18835804281545010e-01 -4.22959188900748559e-02 -3.18835804281545010e-01 -4.22959188900748559e-02 -9.97850473422309814e-04 2.03440530536631490e-04
2.68700000000000000e+10 2.44891985627867202e-04 -1.12982819049900683e-05 -3.15630546434794212e-01 5.70950643844513467e-02 -3.15630546434794212e-01 5.70950643844513467e-02 3.67381385287239787e-04 -7.17952804852669321e-04
2.68800000000000000e+10 2.04957608555660674e-05 -4.20446415705798715e-04 -2.82009222503085466e-01 1.52046136435780632e-01 -2.82009222503085466e-01 1.52046136435780632e-01 2.34183704708712721e-04 -5.41289835338146989e-04
2.68900000000000000e+10 1.93563602393289198e-04 -5.38065703227685074e-04 -2.21327746927162033e-01 2.32048440138317352e-01 -2.21327746927162033e-01 2.32048440138317352e-01 -9.79718625762686108e-04 2.20840291397798367e-04
2.69000000000000000e+10 1.07259272785647738e-03 -1.32898148282217126e-04 -1.38890426798449845e-01 2.90203984676610127e-01 -1.38890426798449845e-01 2.90203984676610127e-01 -4.21851225980795529e-05 5.54203027411808357e-04
2.69100000000000000e+10 5.01790059044055240e-04 -4.59778383414275902e-04 -4.33234484105008838e-02 3.19400899624712742e-01 -4.33234484105008838e-02 3.19400899624712742e-01 -5.85065867867973514e-04 2.98783730791303511e-05
2.69200000000000000e+10 2.99050943336841291e-04 6.30858436355403074e-04 5.83461431730807403e-02 3.16352907885538048e-01 5.83461431730807403e-02 3.16352907885538048e-01 -9.24701458965281140e-04 5.80055225079248102e-05
2.69300000000000000e+10 -1.10864198325117818e-04 4.61575184567500916e-05 1.52191482123748223e-01 2.83287385224905985e-01 1.52191482123748223e-01 2.83287385224905985e-01 -2.80592403096198266e-04 1.08969690925090202e-03
2.69400000000000000e+10 -7.16087825783159643e-04 -1.62205102115763392e-04 2.33183480912817320e-01 2.20960718807545392e-01 2.33183480912817320e-01 2.20960718807545392e-01 1.46958380013608591e-04 -7.04549811992982977e-05
2.69500000000000000e+10 -7.14656338291298331e-04 -1.09781106704287014e-03 2.89929204303458476e-01 1.38371798918475925e-01 2.89929204303458476e-01 1.38371798918475925e-01 -4.70666886589764084e-06 1.06113049720689737e-03
2.69600000000000000e+10 -3.59289174812366604e-05 2.14069382304982024e-04 3.17220082671748671e-01 4.20127522434459444e-02 3.17220082671748671e-01 4.20127522434459444e-02 -7.93375985002616065e-04 -1.19060443821964303e-04
2.69700000000000000e+10 -1.89056755744716726e-04 -1.88257619774358595e-04 3.14963552855074103e-01 -5.82486037654943237e-02 3.14963552855074103e-01 -5.82486037654943237e-02 -3.28297432944290571e-04 9.46603181572215234e-04
2.69800000000000000e+10 3.68612017956829641e-04 1.97168872374173286e-04 2.82566901194297393e-01 -1.52627085468302753e-01 2.82566901194297393e-01 -1.52627085468302753e-01 -1.08217223859663578e-04 -8.19761341937275925e-04
2.69900000000000000e+10 -2.69319249789047642e-04 -8.66581212737245954e-04 2.19626484708062480e-01 -2.32947478682458714e-01 2.19626484708062480e-01 -2.32947478682458714e-01 -7.33510739237745144e-05 6.34451315521309127e-04
2.70000000000000000e+10 -3.47275997700363052e-04 1.03938483474551172e-04 1.37825911696761033e-01 -2.89113369432946576e-01 1.37825911696761033e-01 -2.89113369432946576e-01 4.05377381248899805e-04 -1.86203710932071858e-04
2.70100000000000000e+10 -9.35971993692295075e-04 5.61217697944865453e-04 4.22960778257960718e-02 -3.17706797883709091e-01 4.22960778257960718e-02 -3.17706797883709091e-01 -7.32633442625032659e-04 1.26436475530541026e-03
2.70200000000000000e+10 -1.03010200402204417e-03 6.53871370633570372e-04 -5.91731290683540773e-02 -3.15370717269140344e-01 -5.91731290683540773e-02 -3.15370717269140344e-01 -7.90842996648457165e-04 1.02376366423676961e-04
2.70300000000000000e+10 -9.57474666112733726e-05 5.82759494689420797e-04 -1.51845401122606360e-01 -2.81072717425045637e-01 -1.51845401122606360e-01 -2.81072717425045637e-01 1.14513748363317589e-03 -1.76906105131320265e-04
2.70400000000000000e+10 -2.36207854100569753e-04 4.03766865945309663e-04 -2.32777587780320483e-01 -2.19720854406902921e-01 -2.32777587780320483e-01 -2.19720854406902921e-01 8.80871750226285910e-04 4.84392617705932621e-04
2.70500000000000000e+10 6.69363782439087122e-04 -5.30222136922587424e-04 -2.89923496915955536e-01 -1.38253781936880205e-01 -2.89923496915955536e-01 -1.38253781936880205e-01 3.57107605091412531e-04 -4.73695137957246345e-05
2.70600000000000000e+10 2.04150151468922232e-04 -7.91048386692460204e-04 -3.16880059745430487e-01 -4.08574472963636678e-02 -3.16880059745430487e-01 -4.08574472963636678e-02 1.79815664997435339e-03 3.91803441097743430e-04
2.70700000000000000e+10 -1.03181831919991026e-04 1.36135959713686245e-03 -3.14330664867234766e-01 5.82424985202637524e-02 -3.14330664867234766e-01 5.82424985202637524e-02 4.35014239663668108e-05 -6.34663213213868888e-05
2.70800000000000000e+10 1.31500412807507657e-04 3.40890708424917413e-04 -2.81751302044531027e-01 1.51354726906867049e-01 -2.81751302044531027e-01 1.51354726906867049e-01 -2.24932456326605226e-04 -3.93153788797842400e-04
2.70900000000000000e+10 3.50016929946440740e-04 -5.36728397353408520e-04 -2.20561642658046897e-01 2.33702669088464127e-01 -2.20561642658046897e-01 2.33702669088464127e-01 2.62161253978377025e-04 7.15925823742313605e-05
2.71000000000000000e+10 1.97217064842468572e-04 -2.92521746203774403e-04 -1.37376026689738084e-01 2.88272898820534362e-01 -1.37376026689738084e-01 2.88272898820534362e-01 1.43194003124837241e-03 1.12542902892745966e-03
2.71100000000000000e+10 6.81251824905620279e-04 -9.09932205082401705e-04 -4.05339878620892824e-02 3.16828502373120380e-01 -4.05339878620892824e-02 3.16828502373120380e-01 7.60231868601684820e-04 5.40999524064159482e-06
2.71200000000000000e+10 8.95349986638652271e-05 -2.53034418310632136e-04 5.87860131136370423e-02 3.14637929126575511e-01 5.87860131136370423e-02 3.14637929126575511e-01 4.12098239712395072e-04 5.60312488162534753e-05
2.71300000000000000e+10 2.28116324256048169e-04 2.62073669050073789e-04 1.53892352458119802e-01 2.81274544420777206e-01 1.53892352458119802e-01 2.81274544420777206e-01 1.36286402723327860e-04 1.01469767865604256e-03
2.71400000000000000e+10 -1.47805317119209756e-04 -1.72988432901942786e-04 2.32274799403969751e-01 2.17962687551279510e-01 2.32274799403969751e-01 2.17962687551279510e-01 -8.15666560765214150e-04 -3.62721910032373065e-04
2.71500000000000000e+10 -8.15271713795482798e-04 7.23017268992292152e-04 2.89873097692895654e-01 1.36582591580954343e-01 2.89873097692895654e-01 1.36582591580954343e-01 3.30199390070402927e-05 -7.24486298332122720e-05
2.71600000000000000e+10 1.90279585912511961e-04 2.53153846893148702e-04 3.16579689528295072e-01 4.16222007212772652e-02 3.16579689528295072e-01 4.16222007212772652e-02 -4.17588934692765610e-04 -1.13466879525830151e-04
2.71700000000000000e+10 3.38091020799675891e-04 3.06922059361676178e-05 3.14179809273983701e-01 -5.92686890219188064e-02 3.14179809273983701e-01 -5.92686890219188064e-02 1.02056098315234469e-03 4.67117241616987018e-04
2.71800000000000000e+10 -1.58511677933752715e-03 8.79443303656425026e-04 2.80355158196112786e-01 -1.52065360097384972e-01 2.80355158196112786e-01 -1.52065360097384972e-01 2.20923573865161051e-04 2.45688470063336545e-04
2.71900000000000000e+10 -3.73444184802159643e-04 -5.21493207010120894e-04 2.19455805765031653e-01 -2.32251502832756779e-01 2.19455805765031653e-01 -2.32251502832756779e-01 -2.74469917633001327e-04 -1.72768932986832528e-03
2.72000000000000000e+10 5.58708611932328832e-06 -1.73951145994145646e-03 1.37579641942172370e-01 -2.89516052133981794e-01 1.37579641942172370e-01 -2.89516052133981794e-01 -7.85394781739703375e-04 2.58452497497246962e-05
2.72100000000000000e+10 3.15954521347437786e-04 -5.47363616330004215e-04 3.99513037433398138e-02 -3.15889355364980418e-01 3.99513037433398138e-02 -3.15889355364980418e-01 -8.85646338399652183e-04 1.15113315038554835e-03
2.72200000000000000e+10 2.82347247630572364e-04 5.58909001326258017e-04 -6.12403104580039395e-02 -3.13818244960204829e-01 -6.12403104580039395e-02 -3.13818244960204829e-01 2.38564996408397253e-04 -3.28154819667274365e-04
2.72300000000000000e+10 -1.09831749828417750e-03 1.27187592803862192e-04 -1.53732560378293359e-01 -2.78604445607157358e-01 -1.53732560378293359e-01 -2.78604445607157358e-01 -5.76120701732348397e-04 -9.45653156582145437e-04
2.72400000000000000e+10 5.69675410696500852e-04 -3.20667726568879400e-04 -2.32524322421322066e-01 -2.18320965429489533e-01 -2.32524322421322066e-01 -2.18320965429489533e-01 2.16144370459640187e-04 2.63359090611273920e-04
2.72500000000000000e+10 -1.05353581182976485e-03 -5.37155102782430342e-04 -2.87905516515191584e-01 -1.35962246360370687e-01 -2.87905516515191584e-01 -1.35962246360370687e-01 -5.53927048860989213e-04 1.40186745024736744e-04
2.72600000000000000e+10 8.73062403980199740e-04 -4.17821721001426175e-04 -3.17248743347304074e-01 -3.93684187868264604e-02 -3.17248743347304074e-01 -3.93684187868264604e-02 7.41867089874382679e-04 -2.34496301084551170e-05
2.72700000000000000e+10 5.68297702353539962e-04 9.45794986030501950e-04 -3.12532742305024314e-01 5.99110150267578023e-02 -3.12532742305024314e-01 5.99110150267578023e-02 -7.47748186750354015e-04 8.10878579795398335e-04
2.72800000000000000e+10 -3.16452068537299912e-04 -2.46426536200099622e-04 -2.79383117556842142e-01 1.54158918649178356e-01 -2.79383117556842142e-01 1.54158918649178356e-01 4.35302186882610773e-04 -1.46659905423001378e-03
2.72900000000000000e+10 1.32087942579633012e-03 -2.47032887628760372e-04 -2.18255235248138529e-01 2.31925986959928609e-01 -2.18255235248138529e-01 2.31925986959928609e-01 -5.06243351211349863e-05 8.48042877902484781e-04
2.73000000000000000e+10 -2.85679926236959906e-04 4.21543345703410477e-04 -1.34669115248022137e-01 2.88817475095700493e-01 -1.34669115248022137e-01 2.88817475095700493e-01 -4.84269257365485756e-04 -9.52626505813392293e-04
2.73100000000000000e+10 -5.47960458731642846e-04 2.72633800732864390e-04 -3.91352620443237570e-02 3.16287150827444408e-01 -3.91352620443237570e-02 3.16287150827444408e-01 -2.36693792826351315e-04 -7.49754280940485331e-04
2.73200000000000000e+10 1.27759659908344408e-03 2.87514404005048544e-04 6.01284055194919106e-02 3.13748560638123786e-01 6.01284055194919106e-02 3.13748560638123786e-01 -1.49631210311727673e-03 -1.52680381330453849e-04
2.73300000000000000e+10 -3.35397024715828804e-04 7.09479067143374900e-04 1.52634841566185148e-01 2.79197950500648329e-01 1.52634841566185148e-01 2.79197950500648329e-01 -1.57069814433338881e-04 1.51077806901236858e-04
2.73400000000000000e+10 -2.88817480245319880e-04 -3.54750430480298736e-04 2.32311076005197181e-01 2.18307391038656790e-01 2.32311076005197181e-01 2.18307391038656790e-01 -1.14970940545831585e-03 -8.88562536751366736e-04
2.73500000000000000e+10 2.83194163989365015e-04 5.82001452748312650e-04 2.87537370154735461e-01 1.34785448983398753e-01 2.87537370154735461e-01 1.34785448983398753e-01 1.37334419503978085e-03 -2.91910218404199499e-04
2.73600000000000000e+10 9.53656788381733369e-04 -1.82689500634287212e-05 3.14871001383711435e-01 3.86778306373333214e-02 3.14871001383711435e-01 3.86778306373333214e-02 1.37825571135636725e-04 1.16952600704379106e-03
2.73700000000000000e+10 -1.95689827300292375e-04 -4.45332871986680776e-04 3.13017437672667320e-01 -5.87692732613245838e-02 3.13017437672667320e-01 -5.87692732613245838e-02 -2.56783912228484629e-05 4.52668062880889443e-05
2.73800000000000000e+10 1.61341101881640452e-04 -8.04451536637933173e-04 2.77683379532412344e-01 -1.54466983668978236e-01 2.77683379532412344e-01 -1.54466983668978236e-01 -1.02961196700140727e-03 -2.41699688295572587e-04
2.73900000000000000e+10 -1.31281910695676225e-03 -3.53448036371593747e-04 2.17739670500998656e-01 -2.33698457731910142e-01 2.17739670500998656e-01 -2.33698457731910142e-01 2.35973491865100514e-04 -2.22376462759218111e-04
2.74000000000000000e+10 3.14043888337830340e-04 1.46378285804740337e-03 1.34444683731992393e-01 -2.89362914020025508e-01 1.34444683731992393e-01 -2.89362914020025508e-01 6.64321009350723427e-05 -7.88991588208804969e-05
2.74100000000000000e+10 -6.33724712409195986e-04 3.83545446923467474e-04 3.91699975258568284e-02 -3.15589925888457801e-01 3.91699975258568284e-02 -3.15589925888457801e-01 -7.67640669173531355e-04 5.28808711054025958e-04
2.74200000000000000e+10 -2.96018203417719732e-04 -5.52785409067286853e-04 -6.08139763442266182e-02 -3.11856566900237442e-01 -6.08139763442266182e-02 -3.11856566900237442e-01 -3.97086211329711650e-04 1.47569955714988658e-04
2.74300000000000000e+10 -6.58738130252302617e-04 8.58102054583993648e-05 -1.53984463275746553e-01 -2.79172189216561117e-01 -1.53984463275746553e-01 -2.79172189216561117e-01 1.00893256371200278e-05 1.93364557208701259e-04
2.74400000000000000e+10 -6.93402174879300737e-05 1.34509316626300565e-03 -2.32503568578010716e-01 -2.16528468716013028e-01 -2.32503568578010716e-01 -2.16528468716013028e-01 7.94609089937867234e-05 -8.61263056105643376e-04
2.74500000000000000e+10 -3.03558871742057985e-04 1.37529725425027051e-03 -2.89429407897862867e-01 -1.34027507628556614e-01 -2.89429407897862867e-01 -1.34027507628556614e-01 1.55433978375274907e-04 4.26362966043766637e-04
2.74600000000000000e+10 -1.35540499557584263e-03 4.33782909431128333e-05 -3.14938941498141056e-01 -4.02985188139007786e-02 -3.14938941498141056e-01 -4.02985188139007786e-02 1.11552421634661638e-04 1.34463335596354014e-04
2.74700000000000000e+10 -7.38872140383340270e-04 3.20828790518811054e-04 -3.12346182027740504e-01 6.22329994108932749e-02 -3.12346182027740504e-01 6.22329994108932749e-02 -2.90923328297757583e-04 8.45305068819550073e-04
2.74800000000000000e+10 5.54027536515812801e-04 6.98969893995356065e-04 -2.76933531331276794e-01 1.53710922335172917e-01 -2.76933531331276794e-01 1.53710922335172917e-01 1.18078215376446385e-03 -1.20354128689220281e-05
2.74900000000000000e+10 4.77071728724336869e-04 -4.91176207711517651e-04 -2.16909263493760662e-01 2.32072402579160092e-01 -2.16909263493760662e-01 2.32072402579160092e-01 -6.79309247987183642e-04 5.36336044431535161e-04
2.75000000000000000e+10 1.32489286518254110e-03 7.37143821820034659e-04 -1.32760348425253444e-01 2.87912021394423623e-01 -1.32760348425253444e-01 2.87912021394423623e-01 1.48765731688013729e-04 -8.79339209204370764e-04
2.75100000000000000e+10 1.06073595928062861e-03 2.31251725679238487e-04 -3.89849285772997448e-02 3.15799018975400358e-01 -3.89849285772997448e-02 3.15799018975400358e-01 1.24075104487071501e-03 1.63280833535015663e-04
2.75200000000000000e+10 3.41968679585328661e-04 -5.42172282347108610e-05 6.14445123993519818e-02 3.11700711121558005e-01 6.14445123993519818e-02 3.11700711121558005e-01 -2.45910659460366694e-04 3.00496521999102178e-04
2.75300000000000000e+10 -1.11214088852755726e-03 6.27493038140359920e-04 1.54626387777134472e-01 2.77199206283671784e-01 1.54626387777134472e-01 2.77199206283671784e-01 1.45571204327083381e-03 8.64524822397852162e-04
2.75400000000000000e+10 -1.97351759235915038e-04 1.15573421403792329e-03 2.32005932980898028e-01 2.15389353762686392e-01 2.32005932980898028e-01 2.15389353762686392e-01 -2.24763513166069347e-04 1.78284846767136595e-04
2.75500000000000000e+10 4.32230713661321161e-05 -8.91118816665544592e-06 2.87008362650489013e-01 1.34152017022825504e-01 2.87008362650489013e-01 1.34152017022825504e-01 4.28827907420432691e-04 -4.31178607286671956e-04
2.75600000000000000e+10 -5.38019819916593102e-04 -2.20626761648129113e-04 3.15656138605418413e-01 3.70819952898003916e-02 3.15656138605418413e-01 3.70819952898003916e-02 -1.04227114900954450e-03 1.06637863889033553e-04
2.75700000000000000e+10 6.37321520578828789e-04 1.11559058323105968e-04 3.10465554608389205e-01 -6.11574263464762027e-02 3.10465554608389205e-01 -6.11574263464762027e-02 1.12048154837021319e-04 -3.41710715503903941e-06
2.75800000000000000e+10 2.01277506931194129e-04 -2.39030750198562390e-04 2.76641057139338620e-01 -1.53547831249009725e-01 2.76641057139338620e-01 -1.53547831249009725e-01 -2.75975843080963630e-04 -3.69859971540194429e-04
2.75900000000000000e+10 8.21858040146822462e-04 -3.79891557092815657e-04 2.14687820087146958e-01 -2.33445344352548878e-01 2.14687820087146958e-01 -2.33445344352548878e-01 8.37068450495649413e-04 1.23170095709288505e-04
2.76000000000000000e+10 -1.63472227743273859e-03 -8.41329130873161518e-04 1.33006439614831273e-01 -2.87714337406403009e-01 1.33006439614831273e-01 -2.87714337406403009e-01 -1.01226118221628262e-03 -4.72657393969167210e-04
2.76100000000000000e+10 -4.58808914592030205e-05 -4.23266680494205903e-04 3.64093537842862594e-02 -3.13473262362039262e-01 3.64093537842862594e-02 -3.13473262362039262e-01 -7.62237268849676490e-04 1.87993248011283698e-04
2.76200000000000000e+10 -7.01662201015359013e-04 4.25485692145926100e-04 -6.20896889725342446e-02 -3.11056152726093438e-01 -6.20896889725342446e-02 -3.11056152726093438e-01 -1.46383707804658781e-03 -1.63194481584047404e-04
2.76300000000000000e+10 1.38019569499691350e-04 -2.06313761975267864e-04 -1.54919499375679642e-01 -2.77594208295665668e-01 -1.54919499375679642e-01 -2.77594208295665668e-01 -2.98673315590230115e-04 -3.43839058814515187e-04
2.76400000000000000e+10 1.67424332024810262e-04 -6.73004455249481826e-04 -2.33209485753324258e-01 -2.13582998877741348e-01 -2.33209485753324258e-01 -2.13582998877741348e-01 6.31877717842303186e-05 -2.29141632381403218e-04
2.76500000000000000e+10 1.49267090411154928e-04 8.70252601421379890e-04 -2.86699435938444103e-01 -1.31556698258114002e-01 -2.86699435938444103e-01 -1.31556698258114002e-01 5.97657788445900501e-04 -1.46951416183241064e-04
2.76600000000000000e+10 -2.10897212971234625e-04 -1.36362489448186983e-04 -3.13953800303928887e-01 -3.75352022058253951e-02 -3.13953800303928887e-01 -3.75352022058253951e-02 1.84259953998480486e-04 2.09625843134454519e-04
2.76700000000000000e+10 1.01253470576337880e-04 8.63652095346613326e-04 -3.11600126627051166e-01 6.18728873057840037e-02 -3.11600126627051166e-01 6.18728873057840037e-02 -7.01405356073581533e-04 -4.84559455610522095e-04
2.76800000000000000e+10 1.34821766134027803e-04 1.26996142377649285e-03 -2.76279126729676028e-01 1.53418789285425239e-01 -2.76279126729676028e-01 1.53418789285425239e-01 -4.40175890230421721e-04 8.67654637863014833e-04
2.76900000000000000e+10 -5.18236290693441693e-04 1.17229967670196911e-03 -2.14942041023011926e-01 2.32428614765095715e-01 -2.14942041023011926e-01 2.32428614765095715e-01 6.35215481094705071e-05 -1.13476268929747922e-03
2.77000000000000000e+10 1.00476188687350005e-03 -1.94237899672511204e-04 -1.31584467348832584e-01 2.88060715138759416e-01 -1.31584467348832584e-01 2.88060715138759416e-01 7.58130686983215412e-04 1.26987591695986390e-03
2.77100000000000000e+10 -8.37462465251579747e-04 6.88023632777425790e-04 -3.53488194419285459e-02 3.14261491186791420e-01 -3.53488194419285459e-02 3.14261491186791420e-01 4.36446107594929333e-04 -3.95131156066342150e-04
2.77200000000000000e+10 -7.90754137791956947e-04 -4.36766191547389819e-04 6.19184738637806736e-02 3.10267182719107359e-01 6.19184738637806736e-02 3.10267182719107359e-01 6.55565153290043300e-04 1.05584099362852858e-03
2.77300000000000000e+10 -3.88664682581983331e-04 -4.53748631728083385e-04 1.54202977371161704e-01 2.75206400545135843e-01 1.54202977371161704e-01 2.75206400545135843e-01 -8.72094985989659835e-04 5.45987399230893952e-04
2.77400000000000000e+10 -1.05480141606293856e-04 -2.20848874147493049e-04 2.33161179185992551e-01 2.15035810774923397e-01 2.33161179185992551e-01 2.15035810774923397e-01 -1.35932864574071094e-04 7.17800896472659987e-04
2.77500000000000000e+10 -2.69163002459740796e-04 -9.55034839317290261e-04 2.87895100539369286e-01 1.31878073892914532e-01 2.87895100539369286e-01 1.31878073892914532e-01 -7.56226050150184467e-05 9.01460457635370658e-04
2.77600000000000000e+10 1.74695941293306233e-04 8.51372340432782855e-04 3.13298060089682862e-01 3.69120006226216421e-02 3.13298060089682862e-01 3.69120006226216421e-02 -1.31414529872093521e-03 -8.35628275899018085e-04
2.77700000000000000e+10 2.87662428942279046e-04 -1.44217950198181986e-03 3.08923286419742704e-01 -6.16897967472112702e-02 3.08923286419742704e-01 -6.16897967472112702e-02 9.04804619966987516e-04 1.36460912759577566e-03
2.77800000000000000e+10 -8.44799602215120030e-04 3.78068427966275875e-04 2.73988597387409438e-01 -1.55551615255879377e-01 2.73988597387409438e-01 -1.55551615255879377e-01 7.09088824359229396e-04 6.84431959601277719e-05
2.77900000000000000e+10 4.26145195510967611e-04 -8.49247215932726366e-04 2.13063995380970067e-01 -2.33150974745645750e-01 2.13063995380970067e-01 -2.33150974745645750e-01 -4.94241058681875304e-04 9.08189252870535493e-04
2.78000000000000000e+10 -5.38680217980639763e-04 -1.67331282335947884e-03 1.31591901944778877e-01 -2.86707634056832861e-01 1.31591901944778877e-01 -2.86707634056832861e-01 2.79507587044148663e-04 1.09413757519683896e-03
2.78100000000000000e+10 8.13764806757557050e-04 -1.17628670958513449e-03 3.58889224927584904e-02 -3.12323287689813767e-01 3.58889224927584904e-02 -3.12323287689813767e-01 -2.09228450677453849e-04 -4.62919519286328677e-04
2.78200000000000000e+10 -6.00553502954571852e-04 -1.14513895743950178e-03 -6.31278784159301082e-02 -3.07679553238353054e-01 -6.31278784159301082e-02 -3.07679553238353054e-01 1.88924247883311407e-04 -6.08304745001724098e-04
2.78300000000000000e+10 -7.41356220236262693e-04 1.67368823550517645e-04 -1.55907051524725976e-01 -2.74513509814678480e-01 -1.55907051524725976e-01 -2.74513509814678480e-01 1.71770732071196757e-04 -3.21715644407855560e-04
2.78400000000000000e+10 -1.65142364517662784e-04 7.52889528173003998e-04 -2.32627050612230296e-01 -2.12836230104911178e-01 -2.32627050612230296e-01 -2.12836230104911178e-01 -3.97884290765816576e-04 1.68196827331843803e-03
2.78500000000000000e+10 -6.54708837719694767e-04 -6.34499396259628257e-04 -2.87061253206911227e-01 -1.31125281616953054e-01 -2.87061253206911227e-01 -1.31125281616953054e-01 -2.90200873844788365e-04 -6.35253858522793016e-04
2.78600000000000000e+10 7.23772145295447462e-04 -4.00207595644396245e-04 -3.12621208278367257e-01 -3.63947756895320815e-02 -3.12621208278367257e-01 -3.63947756895320815e-02 -5.50269393161215538e-04 2.39672905536194333e-04
2.78700000000000000e+10 -5.97722287599989689e-04 -1.08633035158174266e-04 -3.08507392837654326e-01 6.32417844498657372e-02 -3.08507392837654326e-01 6.32417844498657372e-02 -6.84478477465983880e-05 1.48586216969379966e-04
2.78800000000000000e+10 8.85759182975749638e-04 -9.99179641293522838e-04 -2.74788013240038931e-01 1.55164839891878348e-01 -2.74788013240038931e-01 1.55164839891878348e-01 2.43590404968595947e-04 -8.87786719045886201e-04
2.78900000000000000e+10 -8.93618640374048054e-04 -8.39015725056612869e-04 -2.12100208789000683e-01 2.31731791562796108e-01 -2.12100208789000683e-01 2.31731791562796108e-01 1.52692921855853109e-04 -4.52599557515207429e-04
2.79000000000000000e+10 5.64489912865888941e-04 -5.30215503771220843e-05 -1.30290798350614356e-01 2.86351129901898149e-01 -1.30290798350614356e-01 2.86351129901898149e-01 4.26848664326295976e-04 -2.73412512761441330e-04
2.79100000000000000e+10 1.27915589723061112e-04 1.54632076495911554e-04 -3.52340111160781011e-02 3.12950141303312224e-01 -3.52340111160781011e-02 3.12950141303312224e-01 9.26843436631333739e-04 2.79922320029850704e-04
2.79200000000000000e+10 8.44948035146460925e-04 -4.67491529498942522e-04 6.41290802358374518e-02 3.06762809473180798e-01 6.41290802358374518e-02 3.06762809473180798e-01 4.47463280870158398e-04 -1.32019288998674314e-03
2.79300000000000000e+10 -1.49184560417768656e-04 -8.47428620252028698e-05 1.54823301902365373e-01 2.72788191567834515e-01 1.54823301902365373e-01 2.72788191567834515e-01 -1.70191696693961295e-04 -8.36409366585586357e-05
2.79400000000000000e+10 -7.23443190710868910e-04 8.29029942060902710e-04 2.31851928230230986e-01 2.12114125613803300e-01 2.31851928230230986e-01 2.12114125613803300e-01 7.70128011513634443e-05 -9.58067110705628422e-04
2.79500000000000000e+10 -5.23502305542655917e-05 -4.49808057032752328e-04 2.86514028339913851e-01 1.29441172133024168e-01 2.86514028339913851e-01 1.29441172133024168e-01 1.76853926349311124e-04 -1.74012804351082620e-04
2.79600000000000000e+10 9.98611682437934665e-04 -1.51149887444506411e-03 3.12367558320737482e-01 3.51002435199501139e-02 3.12367558320737482e-01 3.51002435199501139e-02 -1.11054813478145948e-03 -9.74479298880653075e-04
2.79700000000000000e+10 2.23131171848719447e-04 -1.09641009316075014e-04 3.08290693886724976e-01 -6.35974031595481076e-02 3.08290693886724976e-01 -6.35974031595481076e-02 4.50707626909953481e-04 -1.56275810913725536e-04
2.79800000000000000e+10 1.71459979601843284e-03 1.42635295039812899e-03 2.72190530645971762e-01 -1.56115116747020027e-01 2.72190530645971762e-01 -1.56115116747020027e-01 -5.55520007403803259e-04 2.44612269424475414e-04
2.79900000000000000e+10 1.85307458413537361e-04 -2.50565820944147111e-05 2.12038437004705038e-01 -2.31464482380085684e-01 2.12038437004705038e-01 -2.31464482380085684e-01 4.83679933918140564e-04 -7.61968279142548940e-04
2.80000000000000000e+10 1.07277743724691968e-03 5.53622755018473339e-04 1.28939387373541908e-01 -2.86894141388797486e-01 1.28939387373541908e-01 -2.86894141388797486e-01 6.51855175799658697e-04 -1.60652510671957212e-03
2.80100000000000000e+10 9.64909536197119841e-05 -1.73822126317426588e-03 3.56316864007539744e-02 -3.11820653586650398e-01 3.56316864007539744e-02 -3.11820653586650398e-01 -3.77112372843689113e-04 -9.71644917178269120e-04
2.80200000000000000e+10 -2.74038554568949222e-05 3.36931746753941564e-04 -6.39003296153579231e-02 -3.06880428316801124e-01 -6.39003296153579231e-02 -3.06880428316801124e-01 -3.99079079597347423e-04 5.23070596372040555e-04
2.80300000000000000e+10 9.52683709643184994e-04 1.78812088491025708e-03 -1.55249534302493830e-01 -2.73029235318267116e-01 -1.55249534302493830e-01 -2.73029235318267116e-01 8.72294428062582797e-04 1.31312293666300747e-03
2.80400000000000000e+10 1.01871145048454425e-03 1.68516811415734256e-04 -2.32337772415033283e-01 -2.11729482668717828e-01 -2.32337772415033283e-01 -2.11729482668717828e-01 5.96859552793064727e-04 -4.07070013143193284e-04
2.80500000000000000e+10 8.08617515837144999e-04 -2.82361969435640070e-04 -2.85510184936577538e-01 -1.29580976456639019e-01 -2.85510184936577538e-01 -1.29580976456639019e-01 1.07788719586321717e-03 9.31495812914638285e-05
2.80600000000000000e+10 4.55376227404416436e-04 1.12646246181111915e-05 -3.13152123946538130e-01 -3.54789588106232401e-02 -3.13152123946538130e-01 -3.54789588106232401e-02 9.53724324823859086e-04 -3.18352824821827257e-04
2.80700000000000000e+10 -1.51633115155688910e-03 -9.66648860234244371e-04 -3.06529596974917884e-01 6.40235660182459226e-02 -3.06529596974917884e-01 6.40235660182459226e-02 9.86103101072270888e-04 3.08323400360559533e-04
2.80800000000000000e+10 -8.11175755871316952e-04 8.57640781874497229e-04 -2.73158291306997536e-01 1.56053244434874477e-01 -2.73158291306997536e-01 1.56053244434874477e-01 3.63304899424909283e-04 9.47153294905355402e-04
2.80900000000000000e+10 6.32968459628964583e-04 -2.24325905544854967e-04 -2.10519568914912136e-01 2.31296523332448822e-01 -2.10519568914912136e-01 2.31296523332448822e-01 -8.28826440167341116e-04 5.01605284779124564e-04
2.81000000000000000e+10 1.24169072834181844e-03 5.03728493034547378e-04 -1.28061434169505328e-01 2.85908044810561590e-01 -1.28061434169505328e-01 2.85908044810561590e-01 -9.22497565530924920e-04 1.41264517130302854e-03
2.81100000000000000e+10 7.00296739168435435e-04 -7.19508741763211072e-04 -3.55848858494150141e-02 3.11771109581471473e-01 -3.55848858494150141e-02 3.11771109581471473e-01 4.68185511857092875e-04 -5.87439423276535496e-04
2.81200000000000000e+10 -1.25106850847943579e-03 -8.52228745243785424e-04 6.46397062571000269e-02 3.06795589992961859e-01 6.46397062571000269e-02 3.06795589992961859e-01 3.26869112897514664e-04 -5.73985799976546433e-04
2.81300000000000000e+10 9.56711409662058246e-04 1.17142134827930618e-03 1.56114282238520335e-01 2.71378738927656016e-01 1.56114282238520335e-01 2.71378738927656016e-01 -2.23626289653862219e-04 1.87450167879905889e-04
2.81400000000000000e+10 -8.13227341680307120e-04 4.46713980481659896e-04 2.31610344130954909e-01 2.10202720815596794e-01 2.31610344130954909e-01 2.10202720815596794e-01 7.73330570925442147e-04 1.13126876045892104e-03
2.81500000000000000e+10 1.93862272705414940e-04 2.53042848332875661e-04 2.86298991509199630e-01 1.27316646363926311e-01 2.86298991509199630e-01 1.27316646363926311e-01 2.77748449004470185e-04 5.53054411797901098e-04
2.81600000000000000e+10 -7.04153176216588310e-04 -6.13488207006928883e-04 3.11560781620530303e-01 3.26949382576289527e-02 3.11560781620530303e-01 3.26949382576289527e-02 -2.57643360833167382e-04 3.40872512812725781e-05
2.81700000000000000e+10 -1.30013757921314341e-03 -7.01779593205579199e-04 3.07048695660509963e-01 -6.46005303292497557e-02 3.07048695660509963e-01 -6.46005303292497557e-02 -3.13921667788276708e-04 -1.21046937612282086e-03
2.81800000000000000e+10 -1.72031493387805336e-04 1.31275015532030686e-03 2.71912357663679938e-01 -1.55744214642682788e-01 2.71912357663679938e-01 -1.55744214642682788e-01 -9.73469746666267850e-05 2.63581152837354259e-05
2.81900000000000000e+10 -3.55512662639264200e-05 3.99079456988543570e-04 2.11091436095337370e-01 -2.31103093478582100e-01 2.11091436095337370e-01 -2.31103093478582100e-01 2.84247819763372477e-04 -5.84221399200223770e-04
2.82000000000000000e+10 7.54224722302313942e-04 2.42197757487295882e-04 1.25857663951980447e-01 -2.84422109813307122e-01 1.25857663951980447e-01 -2.84422109813307122e-01 9.82585581489840557e-05 -2.02904001298800278e-03
2.82100000000000000e+10 4.15280657347701196e-04 4.97117730580929891e-04 3.29528408817728533e-02 -3.11233004435782112e-01 3.29528408817728533e-02 -3.11233004435782112e-01 1.02750724824941255e-03 -1.85153331716939311e-04
2.82200000000000000e+10 -6.76257625167711314e-04 -1.10679717589422873e-03 -6.42188643136479831e-02 -3.05632978142518608e-01 -6.42188643136479831e-02 -3.05632978142518608e-01 -1.17959722616924075e-04 3.20103637725299782e-04
2.82300000000000000e+10 -9.28548225003563376e-04 9.23048940644897358e-04 -1.56055074419641115e-01 -2.70484826967641590e-01 -1.56055074419641115e-01 -2.70484826967641590e-01 -1.98178420522304884e-04 -2.55370478408033013e-04
2.82400000000000000e+10 6.11439982631001061e-04 -4.37192288007824171e-04 -2.32222353124014569e-01 -2.09188463147543968e-01 -2.32222353124014569e-01 -2.09188463147543968e-01 8.14704958165389883e-04 -1.05202266972714473e-03
2.82500000000000000e+10 -6.02713944590608478e-04 -1.18294565426899654e-03 -2.85647355980086615e-01 -1.26715889162655387e-01 -2.85647355980086615e-01 -1.26715889162655387e-01 -1.42147451916867684e-03 -4.94494563190430109e-04
2.82600000000000000e+10 5.77768226717086282e-04 -9.00886824798642085e-04 -3.12109560576308342e-01 -3.24587347419689198e-02 -3.12109560576308342e-01 -3.24587347419689198e-02 1.01868711518648936e-03 -7.83615833885190375e-04
2.82700000000000000e+10 4.18076135020830671e-05 9.26436800092008588e-05 -3.06157339411314788e-01 6.43158020505951167e-02 -3.06157339411314788e-01 6.43158020505951167e-02 4.66701804535284398e-04 -5.79494824533874939e-04
2.82800000000000000e+10 2.12791709172133008e-04 -3.99730633466016346e-04 -2.71819759739431066e-01 1.55472835529880338e-01 -2.71819759739431066e-01 1.55472835529880338e-01 5.79557153220346317e-04 -8.82052572093304076e-04
2.82900000000000000e+10 1.45572716488604598e-03 2.93355896153424660e-04 -2.10168209707635889e-01 2.33058748204399618e-01 -2.10168209707635889e-01 2.33058748204399618e-01 1.85431030965715053e-04 -4.21120459028652308e-04
2.83000000000000000e+10 1.00633115160318580e-03 -2.88959873012523474e-04 -1.27068019198360749e-01 2.85050292331623822e-01 -1.27068019198360749e-01 2.85050292331623822e-01 -1.33784205902345811e-03 -1.07270205897775977e-03
2.83100000000000000e+10 9.78605559762224324e-05 1.20025270801832665e-03 -3.17868376694109486e-02 3.10063613511055436e-01 -3.17868376694109486e-02 3.10063613511055436e-01 -5.84525476908427915e-04 -1.35850120093902976e-03
2.83200000000000000e+10 -1.69249758956271771e-03 -7.49669416204907678e-04 6.38302585993780758e-02 3.05239430388122901e-01 6.38302585993780758e-02 3.05239430388122901e-01 -9.60971821288818229e-04 -8.93749498646982535e-04
2.83300000000000000e+10 6.80512351698176962e-04 6.48064923045277427e-04 1.55835105565695853e-01 2.69195717090602582e-01 1.55835105565695853e-01 2.69195717090602582e-01 -1.89411819410862357e-04 1.54080060474560531e-03
2.83400000000000000e+10 3.24582701490620871e-04 6.90139921530889317e-05 2.30685847000957289e-01 2.08216729916915533e-01 2.30685847000957289e-01 2.08216729916915533e-01 -1.80515949174991659e-04 4.02522385508890103e-04
2.83500000000000000e+10 -2.88617510062090835e-04 -1.98555092518326224e-04 2.85202287665231757e-01 1.26615913067858910e-01 2.85202287665231757e-01 1.26615913067858910e-01 -7.35679173290436269e-05 -4.90115721668665425e-04
2.83600000000000000e+10 -4.17979675733084197e-04 6.11740988796034141e-04 3.09850679351343639e-01 3.23904317801969460e-02 3.09850679351343639e-01 3.23904317801969460e-02 1.00822637831796930e-06 4.29207655314621766e-04
2.83700000000000000e+10 -5.20141430155072700e-04 -4.45915278048365164e-04 3.05960402702046497e-01 -6.56303859812007451e-02 3.05960402702046497e-01 -6.56303859812007451e-02 8.84524623447685435e-04 -1.68841918913225503e-03
2.83800000000000000e+10 4.02787538207449302e-04 1.92450139954833735e-04 2.69509319505623346e-01 -1.56990579415300646e-01 2.69509319505623346e-01 -1.56990579415300646e-01 -1.41140709989951021e-04 5.83738002264905481e-04
2.83900000000000000e+10 6.49477771654689449e-04 1.13442785015798381e-04 2.08130836074116560e-01 -2.32569097403647257e-01 2.08130836074116560e-01 -2.32569097403647257e-01 -5.79611249522629939e-04 8.62783098521908103e-05
2.84000000000000000e+10 2.55961314264525398e-04 8.34692686771852329e-04 1.26341967052617299e-01 -2.83804751906252761e-01 1.26341967052617299e-01 -2.83804751906252761e-01 2.80806259696773398e-04 -4.58534806327406941e-04
2.84100000000000000e+10 -6.85267559846095952e-04 5.68086874313573670e-04 3.09679678241151814e-02 -3.09952936592379213e-01 3.09679678241151814e-02 -3.09952936592379213e-01 -4.39205927096380372e-04 -2.00180116045930160e-04
2.84200000000000000e+10 -6.96213539020829161e-04 2.24346722044630408e-04 -6.65640259442119714e-02 -3.03119676988808706e-01 -6.65640259442119714e-02 -3.03119676988808706e-01 5.87917065540990687e-04 -8.92294861364430376e-04
2.84300000000000000e+10 -2.41414798259740986e-04 -2.67681541360151830e-04 -1.56753017514632970e-01 -2.69140532465537374e-01 -1.56753017514632970e-01 -2.69140532465537374e-01 -6.01198555393113565e-05 -1.06763163761904901e-03
2.84400000000000000e+10 -1.46821169584512618e-03 -4.03762118117302182e-04 -2.31685193445351517e-01 -2.08622980547080172e-01 -2.31685193445351517e-01 -2.08622980547080172e-01 -1.71717413987506273e-04 5.56545838087522225e-05
2.84500000000000000e+10 -7.53852437346648539e-04 -2.70522020860156683e-04 -2.85122227134925299e-01 -1.24869749837742655e-01 -2.85122227134925299e-01 -1.24869749837742655e-01 5.99082821852960599e-04 5.20156847891772118e-04
2.84600000000000000e+10 -1.36075059257467708e-04 -4.75841399416738467e-04 -3.08681205296389150e-01 -3.17373599349843258e-02 -3.08681205296389150e-01 -3.17373599349843258e-02 9.43928211001750597e-04 -3.63061876637838085e-04
2.84700000000000000e+10 1.10878992726036137e-03 -1.47237510571089002e-04 -3.03775323637966388e-01 6.56211191098272223e-02 -3.03775323637966388e-01 6.56211191098272223e-02 4.98843897872087560e-04 1.14924568661168311e-04
2.84800000000000000e+10 -1.24930886985080767e-03 5.80942269790397036e-04 -2.69110074699094037e-01 1.56768624741759566e-01 -2.69110074699094037e-01 1.56768624741759566e-01 6.98190278688080542e-04 3.37775574554707208e-04
2.84900000000000000e+10 3.42926285708200387e-04 6.52260959257929809e-04 -2.08691339414603300e-01 2.33210245625976365e-01 -2.08691339414603300e-01 2.33210245625976365e-01 -1.86231933513823832e-04 1.49441835579000116e-03
2.85000000000000000e+10 -3.88458888961533617e-04 -8.45280763279764491e-04 -1.24988814241715956e-01 2.84307842808412370e-01 -1.24988814241715956e-01 2.84307842808412370e-01 -3.70402369391086331e-04 4.23739164113855877e-04
2.85100000000000000e+10 -2.59360749520553624e-04 2.81817469446061846e-04 -3.10269041419097905e-02 3.09929369330847193e-01 -3.10269041419097905e-02 3.09929369330847193e-01 -1.12127372326379748e-04 -9.74691568059849779e-04
2.85200000000000000e+10 2.46055919012525221e-04 -3.38266805270234815e-04 6.53007350330878367e-02 3.02828431710044532e-01 6.53007350330878367e-02 3.02828431710044532e-01 8.17492724109388782e-05 -4.49749686684429092e-04
2.85300000000000000e+10 2.25510824115410409e-04 9.75367014023594204e-05 1.55992432467299075e-01 2.67238107562117577e-01 1.55992432467299075e-01 2.67238107562117577e-01 -7.47283301572037478e-05 4.27252511497293666e-04
2.85400000000000000e+10 7.97796384535019959e-04 1.56637901283430362e-03 2.32272154704516093e-01 2.07779426585883220e-01 2.32272154704516093e-01 2.07779426585883220e-01 2.36298984233122839e-04 6.28663746504082624e-04
2.85500000000000000e+10 -7.99114623750067838e-04 -2.10932945608567813e-04 2.85532109217074781e-01 1.24049444851338952e-01 2.85532109217074781e-01 1.24049444851338952e-01 -7.31258587222322239e-04 1.54394543956553037e-03
2.85600000000000000e+10 -1.81753261324936184e-06 -1.05403668147822666e-03 3.08661620809084269e-01 3.19327724369434240e-02 3.08661620809084269e-01 3.19327724369434240e-02 -1.68557324896039657e-04 3.82168229289412534e-05
2.85700000000000000e+10 9.07768786814280707e-04 -1.10121363980372690e-03 3.03919703545265651e-01 -6.60993883653074737e-02 3.03919703545265651e-01 -6.60993883653074737e-02 3.71079755505529356e-04 2.83793022021952860e-03
2.85800000000000000e+10 4.90922196109044016e-04 6.63771016947999276e-04 2.69027691112269984e-01 -1.56912806959871476e-01 2.69027691112269984e-01 -1.56912806959871476e-01 -1.71280742511264431e-03 -8.64304454268409223e-04
2.85900000000000000e+10 -1.09103978088055035e-03 8.83424117651546766e-04 2.06182632056911092e-01 -2.31818924154976957e-01 2.06182632056911092e-01 -2.31818924154976957e-01 -1.20134515184652183e-03 1.25886689287556231e-03
2.86000000000000000e+10 5.97672996155180201e-04 1.57861206861787084e-04 1.24127663607380090e-01 -2.83398128547058648e-01 1.24127663607380090e-01 -2.83398128547058648e-01 1.48374849075684381e-04 -1.52636258016061364e-03
2.86100000000000000e+10 1.83913452293531362e-04 -1.57168351966560887e-03 3.06983589006455705e-02 -3.09978968791261578e-01 3.06983589006455705e-02 -3.09978968791261578e-01 4.76723891974229635e-04 4.96234235131787975e-04
2.86200000000000000e+10 -6.92208250967079296e-04 1.40324704193169080e-03 -6.72624150606124516e-02 -3.05869925609013604e-01 -6.72624150606124516e-02 -3.05869925609013604e-01 -1.12517479791902396e-04 1.37486101722353511e-03
2.86300000000000000e+10 -1.82536481955982666e-05 8.46094865772465256e-04 -1.57406683427153443e-01 -2.67985634239339798e-01 -1.57406683427153443e-01 -2.67985634239339798e-01 -9.29109836899472477e-04 2.83426553273841380e-04
2.86400000000000000e+10 -1.13992603482500191e-03 1.57355718645927961e-03 -2.31933213616601075e-01 -2.06729026508382485e-01 -2.31933213616601075e-01 -2.06729026508382485e-01 1.70633050008616566e-03 -1.27687354865251837e-03
2.86500000000000000e+10 9.00762850799218450e-04 1.47366205812663039e-04 -2.84224976531537665e-01 -1.23869806640185945e-01 -2.84224976531537665e-01 -1.23869806640185945e-01 2.39181061910214441e-03 -6.51839929584371912e-04
2.86600000000000000e+10 -7.73781024045297841e-04 1.04437755081799558e-03 -3.09073770502575396e-01 -3.16335414857847608e-02 -3.09073770502575396e-01 -3.16335414857847608e-02 -3.93368429649634669e-04 -2.50612199463075118e-04
2.86700000000000000e+10 2.08094468599155224e-04 6.59195553952539879e-04 -3.01418861310613018e-01 6.65210728856419631e-02 -3.01418861310613018e-01 6.65210728856419631e-02 -6.81740285148302555e-04 6.47005605068838867e-04
2.86800000000000000e+10 2.08514221939467566e-04 8.07810510972187494e-07 -2.65608703149091574e-01 1.57205721977055429e-01 -2.65608703149091574e-01 1.57205721977055429e-01 -1.45988911163140466e-03 8.88056904856069870e-04
2.86900000000000000e+10 3.47767545062310031e-04 -5.74724316104559935e-04 -2.05501178928974210e-01 2.32686150189270718e-01 -2.05501178928974210e-01 2.32686150189270718e-01 4.41328165144905401e-04 -1.33758763525374289e-04
2.87000000000000000e+10 -1.23332636995176115e-03 -1.75891293603999915e-06 -1.22566950612072803e-01 2.84537887810266121e-01 -1.22566950612072803e-01 2.84537887810266121e-01 -4.40756703447598016e-04 2.80394749592248515e-04
2.87100000000000000e+10 4.12983242438604687e-04 -7.09727267800955514e-04 -2.95206416610604393e-02 3.07798761342662985e-01 -2.95206416610604393e-02 3.07798761342662985e-01 -3.93531896041906333e-04 5.91976884078100466e-04
2.87200000000000000e+10 7.27341547298194450e-04 3.00288454833080496e-04 6.59516565254910231e-02 3.03374894382005544e-01 6.59516565254910231e-02 3.03374894382005544e-01 -1.49539442645991744e-03 5.93370594049795323e-04
2.87300000000000000e+10 -5.59005171351486933e-04 2.94088954701365185e-04 1.56382841288474767e-01 2.66452882491678866e-01 1.56382841288474767e-01 2.66452882491678866e-01 -6.10729199086865009e-04 -1.50055819601188048e-03
2.87400000000000000e+10 4.26215808340759100e-04 6.97592098765846547e-04 2.31737392156198069e-01 2.04949601930194958e-01 2.31737392156198069e-01 2.04949601930194958e-01 1.36800101845986957e-04 1.00559791851558889e-03
2.87500000000000000e+10 1.65553914589719556e-04 8.33185981703787881e-04 2.84508231619175045e-01 1.23685227067395348e-01 2.84508231619175045e-01 1.23685227067395348e-01 2.18397927534800786e-04 1.61620932435468234e-04
2.87600000000000000e+10 -2.83591713005222547e-04 4.48729347467852430e-04 3.07355250645749256e-01 3.00382770296054070e-02 3.07355250645749256e-01 3.00382770296054070e-02 -9.07819219704727532e-04 -2.22631583697252815e-03
2.87700000000000000e+10 2.21298336698255737e-04 -5.44787062017110374e-05 3.02142009725665017e-01 -6.70844624717505111e-02 3.02142009725665017e-01 -6.70844624717505111e-02 -1.01520830757750066e-03 -8.36841794921703067e-05
2.87800000000000000e+10 -8.40328675945656105e-04 9.79571581628522299e-04 2.66966659676444673e-01 -1.57759852859663624e-01 2.66966659676444673e-01 -1.57759852859663624e-01 -3.78005780766379660e-04 1.41866028474104598e-04
2.87900000000000000e+10 1.57308067319845735e-04 -2.39915891676855449e-04 2.03872274261101494e-01 -2.31525234995256901e-01 2.03872274261101494e-01 -2.31525234995256901e-01 -2.13259508332988888e-04 -1.21456458891842085e-04
2.88000000000000000e+10 -1.25450742650510746e-03 -4.60515062726953831e-04 1.23818441592988077e-01 -2.83418527313835489e-01 1.23818441592988077e-01 -2.83418527313835489e-01 -1.89370798198234018e-03 -1.71668755260891127e-03
2.88100000000000000e+10 6.66539573980196877e-04 -3.50920546418418658e-04 2.77888826191877679e-02 -3.07155723066106556e-01 2.77888826191877679e-02 -3.07155723066106556e-01 -7.90540505208775127e-05 -7.92705081257232599e-04
2.88200000000000000e+10 3.41175480714657410e-04 3.95108762827887472e-04 -6.84959876148736740e-02 -3.01828166604295900e-01 -6.84959876148736740e-02 -3.01828166604295900e-01 -2.42907975591876053e-04 -1.50810849994255924e-05
2.88300000000000000e+10 -5.44551323723407778e-04 1.13781942183346438e-04 -1.57374041371067891e-01 -2.66252518970455043e-01 -1.57374041371067891e-01 -2.66252518970455043e-01 -4.49850406180976234e-04 -1.02495982720631927e-03
2.88400000000000000e+10 -1.49919563057751234e-03 1.09012289028899184e-03 -2.31503183514151251e-01 -2.03276723461015218e-01 -2.31503183514151251e-01 -2.03276723461015218e-01 1.01999335397237188e-03 5.14529731736539098e-04
2.88500000000000000e+10 1.23683354575743936e-03 1.95483127705819781e-04 -2.82469048337081252e-01 -1.22071208732446743e-01 -2.82469048337081252e-01 -1.22071208732446743e-01 8.20491945104422581e-05 -2.15457672081914922e-04
2.88600000000000000e+10 -1.42321165028277659e-04 -5.48255941023379270e-05 -3.07608062966823692e-01 -2.75685757508983380e-02 -3.07608062966823692e-01 -2.75685757508983380e-02 7.48435574610476807e-04 6.35652917883715762e-04
2.88700000000000000e+10 -4.79169710631417852e-04 -6.12091429093040767e-04 -3.02232136988597133e-01 6.70855391611952373e-02 -3.02232136988597133e-01 6.70855391611952373e-02 -7.14115881220042225e-04 -5.34638483002538396e-04
2.88800000000000000e+10 1.28549091573072793e-04 8.79883248008889174e-04 -2.65159121793024033e-01 1.58948527569552217e-01 -2.65159121793024033e-01 1.58948527569552217e-01 6.77812960962108683e-04 -7.33837723681691166e-04
2.88900000000000000e+10 -4.12008912661646456e-04 5.05483648249089538e-04 -2.03736185187201380e-01 2.31030141465707606e-01 -2.03736185187201380e-01 2.31030141465707606e-01 5.02749928077735357e-04 -5.93744760338093158e-04
2.89000000000000000e+10 1.30908676970499733e-04 -6.58808212981283202e-04 -1.21954275664148404e-01 2.85037494160054250e-01 -1.21954275664148404e-01 2.85037494160054250e-01 -3.13864849657798019e-04 1.43447195052319497e-03
2.89100000000000000e+10 5.08227192268883958e-04 -9.75944509027463076e-05 -2.99494027309490617e-02 3.06801797244640240e-01 -2.99494027309490617e-02 3.06801797244640240e-01 1.86645541353914780e-04 -5.21559037528260988e-04
2.89200000000000000e+10 8.97263655342375450e-04 1.18320022675807892e-04 6.78091381810930482e-02 3.01037131660022494e-01 6.78091381810930482e-02 3.01037131660022494e-01 3.39529294710113933e-04 8.82674795064620327e-04
2.89300000000000000e+10 -3.39569949368814751e-04 2.21570765445633263e-04 1.58190583857952288e-01 2.64757259351546814e-01 1.58190583857952288e-01 2.64757259351546814e-01 -1.09771204869460592e-04 6.21113611375996013e-04
2.89400000000000000e+10 2.93248923033872556e-04 -2.56378956155071132e-05 2.31750124480318231e-01 2.02855952056894689e-01 2.31750124480318231e-01 2.02855952056894689e-01 5.12367371116350659e-04 -2.52480596620859889e-04
2.89500000000000000e+10 5.85711972250756835e-04 1.50406607245465803e-03 2.83029506840276612e-01 1.21685359719559780e-01 2.83029506840276612e-01 1.21685359719559780e-01 -7.21239637610251311e-04 1.65970472386591959e-04
2.89600000000000000e+10 -6.71045796456512826e-04 -1.03587333768832336e-03 3.05615870830050151e-01 2.84618138690251356e-02 3.05615870830050151e-01 2.84618138690251356e-02 -4.76104342367989245e-04 4.75639446482623799e-04
2.89700000000000000e+10 -7.79517536987577049e-06 -4.01677754513534791e-04 2.99953872858598813e-01 -6.67024041953837576e-02 2.99953872858598813e-01 -6.67024041953837576e-02 9.38818844497554036e-04 8.14721404420418508e-04
2.89800000000000000e+10 -3.97588499861004031e-04 -1.37145559842088917e-03 2.64481659530338475e-01 -1.58823634539102337e-01 2.64481659530338475e-01 -1.58823634539102337e-01 4.96994082228201521e-04 -5.88097659425998605e-04
2.89900000000000000e+10 -1.37574987941703226e-04 -1.36264570085002244e-05 2.03259162363284396e-01 -2.31430309273018081e-01 2.03259162363284396e-01 -2.31430309273018081e-01 1.11175148465412848e-03 7.33394106260616902e-04
2.90000000000000000e+10 3.48591981758669298e-04 2.03494358065390923e-04 1.20334210871615152e-01 -2.82795692399182064e-01 1.20334210871615152e-01 -2.82795692399182064e-01 4.55439454516718887e-04 6.49210752742668761e-04
2.90100000000000000e+10 -3.25747225977665816e-04 7.13176097640679874e-04 2.67404232093339835e-02 -3.06406783627002577e-01 2.67404232093339835e-02 -3.06406783627002577e-01 8.55412564269368699e-04 9.31655034874665313e-04
2.90200000000000000e+10 9.86944965968389413e-05 5.50969713640891501e-04 -6.91158621642554566e-02 -3.00097769784268997e-01 -6.91158621642554566e-02 -3.00097769784268997e-01 4.34734483264719951e-04 -2.50988357227872286e-04
2.90300000000000000e+10 -1.15752416954018366e-06 6.06344142369526088e-04 -1.58533964557176416e-01 -2.64654817838295697e-01 -1.58533964557176416e-01 -2.64654817838295697e-01 3.44167071268023750e-04 2.41142604026037618e-04
2.90400000000000000e+10 -2.23601499690392392e-04 -7.58137435610180965e-05 -2.31855883036448690e-01 -2.01386287852331092e-01 -2.31855883036448690e-01 -2.01386287852331092e-01 1.36865316402658729e-03 2.65227975201115431e-04
2.90500000000000000e+10 1.64287880975104493e-04 -3.54204419400025612e-05 -2.82862331712529003e-01 -1.21304538540981208e-01 -2.82862331712529003e-01 -1.21304538540981208e-01 9.12413856553386671e-05 -2.45791335176059899e-04
2.90600000000000000e+10 -4.84651452165461356e-05 1.18957443773227826e-03 -3.06090415736188615e-01 -2.77025833784976042e-02 -3.06090415736188615e-01 -2.77025833784976042e-02 -1.06767994620386760e-04 8.63447658934193358e-05
2.90700000000000000e+10 5.80892135961696716e-04 -3.55366589330561266e-04 -2.98740499890845723e-01 6.86993053485880495e-02 -2.98740499890845723e-01 6.86993053485880495e-02 -1.71726949266405907e-04 1.31302824479858434e-03
2.90800000000000000e+10 -1.18661832564583513e-03 -9.15882246669173067e-04 -2.64433081443831264e-01 1.57510561781522951e-01 -2.64433081443831264e-01 1.57510561781522951e-01 1.91899831411342300e-05 -7.53969655776106002e-04
2.90900000000000000e+10 2.85750604968757144e-04 9.94494034979452910e-05 -2.02702004961108462e-01 2.32064067092251858e-01 -2.02702004961108462e-01 2.32064067092251858e-01 5.97528835566662575e-04 -7.87952824620603430e-04
2.91000000000000000e+10 -6.54495676022216993e-04 -6.70170523285627817e-04 -1.21990666572392145e-01 2.82686009397347171e-01 -1.21990666572392145e-01 2.82686009397347171e-01 -2.02428479179193714e-04 3.58586755332129185e-04
2.91100000000000000e+10 2.14468755791084143e-04 -7.02403859299820200e-04 -2.78102797693248402e-02 3.05616575383030609e-01 -2.78102797693248402e-02 3.05616575383030609e-01 -1.05400966795715797e-03 -6.92857131167971189e-04
2.91200000000000000e+10 -2.89036032222504072e-04 -1.17076829904899757e-03 6.83555744186311182e-02 2.99001245206561961e-01 6.83555744186311182e-02 2.99001245206561961e-01 5.67030231953286707e-04 -1.42032464758506602e-03
2.91300000000000000e+10 3.54061983932801958e-04 -1.03756797591408488e-04 1.58379428165742880e-01 2.63066022587139514e-01 1.58379428165742880e-01 2.63066022587139514e-01 -9.91210104045016057e-04 3.42642419420986809e-04
2.91400000000000000e+10 -8.98398247703432106e-04 5.41676452688835713e-05 2.30938123450565774e-01 2.00755978648559041e-01 2.30938123450565774e-01 2.00755978648559041e-01 1.16848072386858568e-03 -1.89547528422337008e-04
2.91500000000000000e+10 2.96028987501854531e-04 -5.12118942232956255e-04 2.82308041912849916e-01 1.19601585233109153e-01 2.82308041912849916e-01 1.19601585233109153e-01 -8.59871568900567071e-05 -6.10967324277888633e-04
2.91600000000000000e+10 -7.82854765349354133e-04 -8.21440099522501157e-05 3.05568244389153365e-01 2.69608759867395568e-02 3.05568244389153365e-01 2.69608759867395568e-02 5.02912608419264838e-04 7.17031899643316637e-06
2.91700000000000000e+10 4.66473952340086756e-06 -4.65178474521717991e-04 2.98508991896415998e-01 -6.89874083256078602e-02 2.98508991896415998e-01 -6.89874083256078602e-02 9.78058703196139521e-04 -7.88510659675170796e-04
2.91800000000000000e+10 -6.29318973755372364e-04 6.59896158264360586e-04 2.62256891754838128e-01 -1.57723952433513948e-01 2.62256891754838128e-01 -1.57723952433513948e-01 -7.67627320430107796e-04 7.50442930111239474e-04
2.91900000000000000e+10 1.31072320168532791e-03 -4.85371138091388651e-04 2.00979635527044731e-01 -2.31978802031074904e-01 2.00979635527044731e-01 -2.31978802031074904e-01 -8.29724611517362138e-04 -7.04508808894132406e-04
2.92000000000000000e+10 -2.36191779820087413e-05 3.05243279763157971e-04 1.19478385378010588e-01 -2.82344729416155016e-01 1.19478385378010588e-01 -2.82344729416155016e-01 2.74954266714762144e-04 -2.88300029481629338e-05
2.92100000000000000e+10 1.21852880732182156e-03 2.61510264998758080e-05 2.72302382522453569e-02 -3.05704586404538348e-01 2.72302382522453569e-02 -3.05704586404538348e-01 -1.14367068206936871e-03 -4.15150022563093356e-04
2.92200000000000000e+10 1.14060840321796638e-03 -1.54441160007249417e-03 -6.91638024815687119e-02 -2.98470509686134200e-01 -6.91638024815687119e-02 -2.98470509686134200e-01 1.05528940833253342e-03 3.75923475154989965e-04
2.92300000000000000e+10 7.83649343633996019e-04 -8.47337279200094558e-04 -1.58686652078259743e-01 -2.61728625032866480e-01 -1.58686652078259743e-01 -2.61728625032866480e-01 9.17759570488441406e-05 -7.43412698725458830e-04
2.92400000000000000e+10 8.97112138266406393e-04 -4.50074505110636383e-04 -2.31823271038983786e-01 -2.01837035617138671e-01 -2.31823271038983786e-01 -2.01837035617138671e-01 -4.99504620503939145e-04 -2.23580900960945413e-04
2.92500000000000000e+10 7.83939910815927444e-04 -6.37053142480770835e-04 -2.82598321040601952e-01 -1.18658136634689396e-01 -2.82598321040601952e-01 -1.18658136634689396e-01 5.48443301718067367e-05 3.53989524358365568e-04
2.92600000000000000e+10 5.61215429641585871e-04 1.61403593179618041e-04 -3.04571829338553757e-01 -2.61027912461754205e-02 -3.04571829338553757e-01 -2.61027912461754205e-02 -2.41381583436364635e-04 2.82454167296505889e-05
2.92700000000000000e+10 -2.69939083976614310e-04 4.77293927568436826e-04 -2.98195952520585006e-01 6.90335809460441291e-02 -2.98195952520585006e-01 6.90335809460441291e-02 1.07256369931431792e-04 3.12140921784245806e-04
2.92800000000000000e+10 -4.62078420075059146e-04 -1.94215530287502328e-04 -2.62683015806964959e-01 1.57589239516949003e-01 -2.62683015806964959e-01 1.57589239516949003e-01 -1.37776683583355845e-04 -1.71835052432880314e-04
2.92900000000000000e+10 -9.49940164022063105e-04 -1.08405636886288299e-04 -2.00235820206021736e-01 2.32756982227094927e-01 -2.00235820206021736e-01 2.32756982227094927e-01 -1.02265207427433189e-03 -1.43175076140696664e-04
2.93000000000000000e+10 3.03296728338623887e-04 7.15588697485302337e-04 -1.19584251129573521e-01 2.83260327608643669e-01 -1.19584251129573521e-01 2.83260327608643669e-01 9.53603845767802389e-04 2.78392030746138573e-04
2.93100000000000000e+10 1.07629063307631309e-04 3.44380250403736191e-04 -2.48243104526746014e-02 3.04952100492397682e-01 -2.48243104526746014e-02 3.04952100492397682e-01 7.29489644372448081e-05 -5.90018153372313210e-04
2.93200000000000000e+10 -3.73853014034694685e-04 5.47664213316747519e-04 7.04179821438081638e-02 2.98728339757968420e-01 7.04179821438081638e-02 2.98728339757968420e-01 -1.18902811128394270e-05 -9.99868912170853068e-04
2.93300000000000000e+10 1.08907424266592619e-03 -1.24240018806460214e-03 1.57360990583639948e-01 2.62246330186601262e-01 1.57360990583639948e-01 2.62246330186601262e-01 2.52498520952605253e-04 -5.32896974500089065e-04
2.93400000000000000e+10 1.55489744518380000e-04 1.40432373189903256e-04 2.32975002427829425e-01 1.99956034830936102e-01 2.32975002427829425e-01 1.99956034830936102e-01 -3.86325197797454439e-04 -1.06857108081762119e-03
2.93500000000000000e+10 -3.74000298040866709e-04 -7.80486726098298072e-04 2.82153013699694644e-01 1.18337503219457602e-01 2.82153013699694644e-01 1.18337503219457602e-01 9.32923584542453069e-04 1.73322396351828777e-04
2.93600000000000000e+10 5.58108844120289919e-04 3.70127340841887201e-04 3.05142365180848141e-01 2.41703078643377145e-02 3.05142365180848141e-01 2.41703078643377145e-02 -1.06609431363205247e-03 8.20330684359011708e-05
2.93700000000000000e+10 -7.84053995713782892e-06 -2.44818852727990690e-05 2.96868901803379825e-01 -6.98646874604914314e-02 2.96868901803379825e-01 -6.98646874604914314e-02 -9.86108139253566440e-04 2.39413328347569924e-04
2.93800000000000000e+10 6.23825012510341014e-04 4.06926721021812988e-05 2.60674248431782107e-01 -1.57810706893197261e-01 2.60674248431782107e-01 -1.57810706893197261e-01 -2.65324218819457721e-04 4.11075888941386596e-04
2.93900000000000000e+10 -4.41664287194577885e-04 1.57654701052867404e-03 2.00214448513531984e-01 -2.31577511149429177e-01 2.00214448513531984e-01 -2.31577511149429177e-01 8.82913246026780147e-04 -6.65591057455779058e-04
2.94000000000000000e+10 6.21816249716471213e-04 5.21388488071222885e-04 1.19357686821809569e-01 -2.81712022356372660e-01 1.19357686821809569e-01 -2.81712022356372660e-01 1.06321634466014794e-03 -2.33548008596928596e-05
2.94100000000000000e+10 1.28022832917449128e-03 1.38269413163275663e-03 2.36080097059329815e-02 -3.04049796164237496e-01 2.36080097059329815e-02 -3.04049796164237496e-01 2.89167394325416075e-04 -2.75877219753986711e-04
2.94200000000000000e+10 -1.69225180886947713e-03 -1.64220992412219402e-04 -7.00860935928202256e-02 -2.97006329176672634e-01 -7.00860935928202256e-02 -2.97006329176672634e-01 -5.34371848019097608e-04 1.28203181977057655e-04
2.94300000000000000e+10 -1.57333195093356976e-04 -6.75274679858617983e-04 -1.58367607441442182e-01 -2.61478464296834301e-01 -1.58367607441442182e-01 -2.61478464296834301e-01 -1.69828836354287988e-03 -1.50863401100586117e-04
2.94400000000000000e+10 6.79004380357039789e-05 2.62715983490376244e-05 -2.31257913907426615e-01 -1.98835064775840370e-01 -2.31257913907426615e-01 -1.98835064775840370e-01 4.51563421991834908e-04 -4.02758435674133240e-04
2.94500000000000000e+10 6.18004181959234451e-05 -1.01581947936157458e-03 -2.82352954824560687e-01 -1.17377110316537553e-01 -2.82352954824560687e-01 -1.17377110316537553e-01 1.20036264668211645e-03 5.19715856835759049e-04
2.94600000000000000e+10 -3.07787582642670045e-05 2.36965051642904937e-04 -3.03821003001457979e-01 -2.47013960148793274e-02 -3.03821003001457979e-01 -2.47013960148793274e-02 1.49634487102233904e-03 4.34267079810886654e-05
2.94700000000000000e+10 -1.11729884030082119e-03 2.96658137283459711e-04 -2.97158200917035209e-01 6.97115636930173421e-02 -2.97158200917035209e-01 6.97115636930173421e-02 6.07107449195787080e-04 -6.55390169340554869e-05
2.94800000000000000e+10 9.64767270564341847e-05 1.73228994148143202e-03 -2.60454924049087766e-01 1.57636050260975519e-01 -2.60454924049087766e-01 1.57636050260975519e-01 6.16963953068547688e-04 8.23586180277749392e-04
2.94900000000000000e+10 -7.51315328845798369e-04 -1.88301008753147335e-04 -1.98594663018563267e-01 2.32394582164183877e-01 -1.98594663018563267e-01 2.32394582164183877e-01 -3.63561733953347274e-05 6.03875844970210799e-04
2.95000000000000000e+10 -8.17998345689440950e-04 9.49553536908674754e-04 -1.16901601282109718e-01 2.81045002015128942e-01 -1.16901601282109718e-01 2.81045002015128942e-01 2.76805511644430880e-05 -9.45071165615288429e-04
2.95100000000000000e+10 -1.56638720744979826e-03 -6.20103310788148033e-04 -2.38891465995589580e-02 3.03782785113666631e-01 -2.38891465995589580e-02 3.03782785113666631e-01 -9.04152177439236562e-04 -2.94545043797891427e-04
2.95200000000000000e+10 1.75795453065682024e-04 6.00839049997407837e-04 7.07482351426362011e-02 2.96742855272028316e-01 7.07482351426362011e-02 2.96742855272028316e-01 -7.31638751473488963e-04 -5.62491691215165758e-04
2.95300000000000000e+10 -4.41545084658939745e-04 -2.60966358528612514e-04 1.57907825584913175e-01 2.58455404833985880e-01 1.57907825584913175e-01 2.58455404833985880e-01 3.22392084398432158e-04 1.48769806377364281e-04
2.95400000000000000e+10 5.81767286554886877e-04 1.28999615548468238e-04 2.31947275338809628e-01 1.98106855947649041e-01 2.31947275338809628e-01 1.98106855947649041e-01 -3.42575092646299939e-04 -1.02458610882805580e-03
2.95500000000000000e+10 -1.15892362421499639e-03 -8.43598837525069787e-04 2.80900867540345989e-01 1.17628880360606647e-01 2.80900867540345989e-01 1.17628880360606647e-01 -7.25535294164019557e-04 -7.63605797475000415e-05
2.95600000000000000e+10 6.76072810890844056e-04 2.75115970381892500e-04 3.03195798382353665e-01 2.50362671341707102e-02 3.03195798382353665e-01 2.50362671341707102e-02 -1.12848993800107817e-03 3.17126734301702653e-04
2.95700000000000000e+10 2.43178594671312201e-04 -5.12767129143007396e-04 2.95080274617821214e-01 -7.14327430352765386e-02 2.95080274617821214e-01 -7.14327430352765386e-02 -2.44447713704205828e-04 -7.37275432916314360e-04
2.95800000000000000e+10 9.13948639217181395e-04 -6.59914929675308902e-05 2.60462477820556149e-01 -1.58841907176448416e-01 2.60462477820556149e-01 -1.58841907176448416e-01 -1.22257526581462698e-04 2.13778014359435964e-03
2.95900000000000000e+10 -8.72615815356419296e-04 -3.42545704856429172e-04 1.97252038976734767e-01 -2.31848958302868863e-01 1.97252038976734767e-01 -2.31848958302868863e-01 7.99363776739709292e-05 -9.81911823390188522e-04
2.96000000000000000e+10 5.10885744116856334e-04 -2.32007532336621103e-04 1.15644258658534935e-01 -2.81672834751723666e-01 1.15644258658534935e-01 -2.81672834751723666e-01 8.26962204592789963e-04 3.46745359066475583e-04
2.96100000000000000e+10 -4.44095459858494311e-04 2.91962716968830003e-04 2.33509555049464732e-02 -3.04009853320631573e-01 2.33509555049464732e-02 -3.04009853320631573e-01 -4.94820449812223475e-04 -6.41859046220475196e-04
2.96200000000000000e+10 -4.13755149558458905e-04 -3.80196426661031243e-05 -6.98930755403388559e-02 -2.94890341410228018e-01 -6.98930755403388559e-02 -2.94890341410228018e-01 7.44789778913928732e-04 -1.52818373252126523e-03
2.96300000000000000e+10 -2.87130890706453876e-04 4.88202227417726495e-04 -1.58612140684170400e-01 -2.60017806741582036e-01 -1.58612140684170400e-01 -2.60017806741582036e-01 -5.91736766212098367e-04 -3.80867808273659982e-04
2.96400000000000000e+10 -1.27649741191852308e-03 -1.21684514024694604e-03 -2.31103561079270547e-01 -1.96370587852641221e-01 -2.31103561079270547e-01 -1.96370587852641221e-01 1.90221690379423539e-03 9.47560277090042820e-04
2.96500000000000000e+10 -1.64071323434949486e-04 -1.17646279937924476e-04 -2.81117057555868188e-01 -1.14561342350334910e-01 -2.81117057555868188e-01 -1.14561342350334910e-01 -1.06637504701346197e-03 2.03863118164026913e-04
2.96600000000000000e+10 -9.62645257086761855e-04 1.64488594939989730e-04 -3.02971015847957659e-01 -2.38890109686045390e-02 -3.02971015847957659e-01 -2.38890109686045390e-02 -1.16405925538071755e-04 -3.83277504977713301e-04
2.96700000000000000e+10 -2.94150368742479660e-04 -4.43275204366944781e-04 -2.95515004253927849e-01 7.15038195160399986e-02 -2.95515004253927849e-01 7.15038195160399986e-02 -1.08501770421957604e-04 7.02067001270894968e-04
2.96800000000000000e+10 1.18162241180147615e-04 4.72102804083657270e-05 -2.58087116830537255e-01 1.58628394958783892e-01 -2.58087116830537255e-01 1.58628394958783892e-01 6.29583828453795548e-04 8.12584403016945104e-04
2.96900000000000000e+10 3.24358262810645601e-04 4.06578705351155138e-04 -1.97486677793772769e-01 2.32811137928853773e-01 -1.97486677793772769e-01 2.32811137928853773e-01 -1.33127470504200277e-03 -4.03819874666410945e-04
2.97000000000000000e+10 8.70718123193477047e-04 6.41145093420095744e-04 -1.15096008896874838e-01 2.81828126008171365e-01 -1.15096008896874838e-01 2.81828126008171365e-01 2.90116485909769329e-04 -9.58540268251818674e-05
2.97100000000000000e+10 -7.73903283035922871e-04 -1.39542238237881530e-04 -2.24335857770099414e-02 3.02901711970365528e-01 -2.24335857770099414e-02 3.02901711970365528e-01 8.54728423811798230e-05 -1.09249059160867839e-04
2.97200000000000000e+10 2.83683724541003706e-04 6.60375957073900430e-04 7.11199747364283097e-02 2.95572186122576519e-01 7.11199747364283097e-02 2.95572186122576519e-01 -4.47997302238378151e-04 5.40342177354216245e-04
2.97300000000000000e+10 -1.65507177545299114e-04 -1.43852780650782520e-04 1.59855625252454447e-01 2.58355473826782644e-01 1.59855625252454447e-01 2.58355473826782644e-01 1.07466291332873219e-03 2.66040669825096533e-04
2.97400000000000000e+10 -3.93132124993647461e-04 1.35025801227024901e-04 2.31701242683086173e-01 1.96673743098749576e-01 2.31701242683086173e-01 1.96673743098749576e-01 3.01337486608776973e-04 -2.99395843503655421e-04
2.97500000000000000e+10 1.20912957731723241e-03 7.06224717691339470e-05 2.80260643786526986e-01 1.15079241228455448e-01 2.80260643786526986e-01 1.15079241228455448e-01 8.73985549302045447e-04 -1.82628825541897294e-04
2.97600000000000000e+10 -5.95138799468290363e-05 8.54458125274068134e-04 3.03057437915152661e-01 2.39351471204814377e-02 3.03057437915152661e-01 2.39351471204814377e-02 3.42823929847386447e-05 1.21386555507408561e-03
2.97700000000000000e+10 8.92575398559539482e-04 1.34926469322864726e-04 2.94199520202950759e-01 -7.27346146732871235e-02 2.94199520202950759e-01 -7.27346146732871235e-02 1.00078099180281690e-03 -6.67463977703633957e-04
2.97800000000000000e+10 -5.53923645582770838e-04 -6.32563636262612636e-06 2.58622970984661804e-01 -1.59557316253257503e-01 2.58622970984661804e-01 -1.59557316253257503e-01 -8.48764639274735585e-04 -5.25049883184559103e-04
2.97900000000000000e+10 6.58551084163876447e-04 1.21644405098138763e-03 1.94882527898307761e-01 -2.31868002780226540e-01 1.94882527898307761e-01 -2.31868002780226540e-01 -2.17586141564820413e-04 -1.06522086281802251e-03
2.98000000000000000e+10 8.19422050898355073e-04 9.51187093991374510e-04 1.14887913375505218e-01 -2.80666152058576313e-01 1.14887913375505218e-01 -2.80666152058576313e-01 -1.24615308207930522e-03 4.75985795454701515e-04
2.98100000000000000e+10 3.08846647293867693e-04 -1.00229727305632866e-04 2.34518901543462020e-02 -3.01639080308409191e-01 2.34518901543462020e-02 -3.01639080308409191e-01 6.44185421395368388e-04 -1.22729046809925621e-03
2.98200000000000000e+10 -4.48041222172139452e-04 -1.32916274708853578e-04 -7.20307223882764858e-02 -2.94068455900200587e-01 -7.20307223882764858e-02 -2.94068455900200587e-01 1.08199316903953959e-03 3.57520269927883545e-04
2.98300000000000000e+10 9.55296534585914283e-04 -3.82739761732210886e-04 -1.60769779082992864e-01 -2.56892631005337491e-01 -1.60769779082992864e-01 -2.56892631005337491e-01 7.63448944107804860e-04 8.07611542128278755e-04
2.98400000000000000e+10 -1.39710481449965254e-03 3.84741471566687088e-04 -2.32410359107797559e-01 -1.94758954068067813e-01 -2.32410359107797559e-01 -1.94758954068067813e-01 -1.62151086998817845e-05 -7.73335809568256719e-04
2.98500000000000000e+10 -7.19435723830086729e-04 -3.07076236054990210e-04 -2.79467778456917337e-01 -1.13346178286827998e-01 -2.79467778456917337e-01 -1.13346178286827998e-01 3.12883900191841675e-05 5.87915156406535453e-04
2.98600000000000000e+10 -9.35692310231029355e-04 -1.13703806869728630e-03 -3.01252556942317395e-01 -2.25017243394855029e-02 -3.01252556942317395e-01 -2.25017243394855029e-02 -1.31400928755112906e-03 1.08105196294069721e-03
2.98700000000000000e+10 4.01648846641909630e-04 -7.18129735464653448e-04 -2.93373007477203684e-01 7.22903679832827134e-02 -2.93373007477203684e-01 7.22903679832827134e-02 2.51339910676067217e-04 -1.02272922670878261e-03
2.98800000000000000e+10 2.19641068847872866e-03 3.91010210652928273e-04 -2.57364379532644794e-01 1.60063108641469026e-01 -2.57364379532644794e-01 1.60063108641469026e-01 -9.80996461073638509e-04 9.01238532579735582e-04
2.98900000000000000e+10 4.89229725429926945e-04 5.70807941205615614e-04 -1.95427404697094326e-01 2.30196501900954698e-01 -1.95427404697094326e-01 2.30196501900954698e-01 -2.81807877401667455e-04 -7.06637004921740726e-04
2.99000000000000000e+10 -1.15083808148130949e-03 3.90348881115857438e-05 -1.14325220739573644e-01 2.79991961314214999e-01 -1.14325220739573644e-01 2.79991961314214999e-01 -1.66642836531059315e-04 -1.31204348755789194e-04
2.99100000000000000e+10 -1.29113242756343557e-03 -6.08519563712936972e-04 -2.10395374042802209e-02 3.02081156142369134e-01 -2.10395374042802209e-02 3.02081156142369134e-01 -8.59058935247192733e-04 9.54787598972539880e-04
2.99200000000000000e+10 -1.83034461743264226e-04 -8.80298043002580074e-04 7.27336592780043895e-02 2.93077835960929067e-01 7.27336592780043895e-02 2.93077835960929067e-01 3.13366124480304300e-04 6.72969195922939968e-05
2.99300000000000000e+10 1.49651021840473087e-03 5.04702870088491701e-04 1.59348738054709421e-01 2.56736401273815917e-01 1.59348738054709421e-01 2.56736401273815917e-01 2.42630810874942658e-04 2.96243031995101138e-04
2.99400000000000000e+10 3.10915972999985094e-04 -5.33686515240482670e-04 2.31470761740127373e-01 1.94140345382711021e-01 2.31470761740127373e-01 1.94140345382711021e-01 -1.84499712800277951e-03 5.17312498929484339e-04
2.99500000000000000e+10 -1.96180768460396271e-05 9.04141942584879847e-04 2.79806200521418857e-01 1.15418282755304802e-01 2.79806200521418857e-01 1.15418282755304802e-01 -6.04301375719663836e-04 8.94942462596410638e-04
2.99600000000000000e+10 1.59568012128865933e-04 2.53864141614298109e-04 3.01708711389854500e-01 2.11452411827318561e-02 3.01708711389854500e-01 2.11452411827318561e-02 1.19023757119441078e-04 1.13460685658029419e-04
2.99700000000000000e+10 3.39155434971175724e-04 -5.94278865513236335e-04 2.92907045162064839e-01 -7.29553296780894450e-02 2.92907045162064839e-01 -7.29553296780894450e-02 -8.74508662384441862e-04 8.27643912386767135e-04
2.99800000000000000e+10 1.40480482278910741e-03 2.07599563142221944e-04 2.55514779488536348e-01 -1.59307258488048498e-01 2.55514779488536348e-01 -1.59307258488048498e-01 2.68655101294456311e-05 -1.14811216578194260e-03
2.99900000000000000e+10 1.95435905467190824e-04 4.26056452448666005e-04 1.93293655477707327e-01 -2.31727893138056862e-01 1.93293655477707327e-01 -2.31727893138056862e-01 -2.87067922304776302e-05 4.58572354614260780e-04
3.00000000000000000e+10 2.68297366086124004e-04 -1.58529549636496093e-04 1.13311408129708940e-01 -2.79642726369343897e-01 1.13311408129708940e-01 -2.79642726369343897e-01 -6.64337144169353111e-05 -2.22203800526079453e-04
3.00100000000000000e+10 4.06853800172922648e-04 2.97499390948333662e-04 2.00188339968192103e-02 -3.01488470785008400e-01 2.00188339968192103e-02 -3.01488470785008400e-01 4.41321452270307575e-04 -1.48683774098052582e-03
3.00200000000000000e+10 6.52201929041437787e-04 -8.05422563780381403e-04 -7.31568092646739387e-02 -2.91474558929569361e-01 -7.31568092646739387e-02 -2.91474558929569361e-01 -8.11991769472696144e-04 -1.19514159600632268e-03
3.00300000000000000e+10 -8.52721685024277398e-04 4.34798692706223945e-04 -1.59978998334387723e-01 -2.54646835645998659e-01 -1.59978998334387723e-01 -2.54646835645998659e-01 -5.73191316169216264e-04 -6.46221837323511571e-05
3.00400000000000000e+10 8.19419758532422796e-04 1.67983976470171805e-04 -2.32122246595917986e-01 -1.94670555206608448e-01 -2.32122246595917986e-01 -1.94670555206608448e-01 -2.33083348179849187e-04 -1.34736654362672221e-04
3.00500000000000000e+10 -9.90774380628132350e-04 -3.06281116459553851e-04 -2.79144400073787935e-01 -1.12158295953429188e-01 -2.79144400073787935e-01 -1.12158295953429188e-01 7.24156191263350423e-04 -2.58069370025218621e-04
3.00600000000000000e+10 3.69887028208162048e-04 -7.14494597940308900e-04 -3.00231873527620985e-01 -2.05673186247077137e-02 -3.00231873527620985e-01 -2.05673186247077137e-02 3.84758547193629293e-04 1.66202753817987176e-04
3.00700000000000000e+10 -3.85980834702648987e-05 6.21504470118630810e-04 -2.92085971626773300e-01 7.36935021285706621e-02 -2.92085971626773300e-01 7.36935021285706621e-02 1.29141786689799474e-04 3.29562256224835281e-04
3.00800000000000000e+10 5.78922341066455417e-05 1.17044307569197432e-04 -2.55547796820983719e-01 1.61293819684799139e-01 -2.55547796820983719e-01 1.61293819684799139e-01 8.40535788247956600e-04 -3.96703514797018314e-04
3.00900000000000000e+10 -5.45173794616801428e-04 5.51894295086081911e-04 -1.92987194416216645e-01 2.31283736490053016e-01 -1.92987194416216645e-01 2.31283736490053016e-01 1.68015398707805534e-03 -3.81933984811734105e-05
3.01000000000000000e+10 -1.53888112395317430e-03 3.00526373938940192e-05 -1.11619336844411055e-01 2.79135350402471116e-01 -1.11619336844411055e-01 2.79135350402471116e-01 -7.21156019355598645e-04 -9.87762150078297764e-04
3.01100000000000000e+10 7.61600470533034708e-04 1.45039849753151282e-05 -2.21249688906322781e-02 3.00229403458383171e-01 -2.21249688906322781e-02 3.00229403458383171e-01 4.11358690322664877e-04 -3.21546491289601694e-04
3.01200000000000000e+10 -8.48184818178131998e-04 3.55714145157845680e-04 7.31677155183086542e-02 2.92245978879523527e-01 7.31677155183086542e-02 2.92245978879523527e-01 5.90898245640673891e-04 3.65628794845753184e-04
3.01300000000000000e+10 5.10891246417361639e-04 -4.11629294853386063e-04 1.60743750092458559e-01 2.54142074351760394e-01 1.60743750092458559e-01 2.54142074351760394e-01 1.75126761613546430e-04 -1.44268844116160933e-03
3.01400000000000000e+10 -5.59829769633412200e-04 -9.69091699208538449e-04 2.31142544477934669e-01 1.93267101439454136e-01 2.31142544477934669e-01 1.93267101439454136e-01 -1.86759176302808119e-04 -8.89774774836447359e-04
3.01500000000000000e+10 8.17528755553448999e-04 8.13983487552241204e-04 2.80291968275871051e-01 1.12510830900532890e-01 2.80291968275871051e-01 1.12510830900532890e-01 -5.49578925135513013e-04 -2.15887360211470164e-04
3.01600000000000000e+10 5.94217695363971339e-04 -3.61610960818791502e-04 3.00160981608594557e-01 1.97773872103014607e-02 3.00160981608594557e-01 1.97773872103014607e-02 3.08153215544888987e-04 -5.97085275406424954e-05
3.01700000000000000e+10 8.91392152681772789e-04 4.68312785915762778e-04 2.92510002237005295e-01 -7.24562628254534491e-02 2.92510002237005295e-01 -7.24562628254534491e-02 -5.76906978187539726e-04 -9.09152493624596424e-05
3.01800000000000000e+10 5.64397630158749845e-04 -1.32066874769336251e-04 2.55158628813473565e-01 -1.59934027932751355e-01 2.55158628813473565e-01 -1.59934027932751355e-01 2.39072718952083987e-04 6.85220672539671363e-04
3.01900000000000000e+10 2.98611247416719495e-04 8.49862031263801066e-04 1.93211107688360029e-01 -2.31446679296714058e-01 1.93211107688360029e-01 -2.31446679296714058e-01 -5.14614079008112162e-04 8.68414412288696480e-05
3.02000000000000000e+10 1.00076746226377051e-03 -2.02905473173181975e-04 1.11539583653696303e-01 -2.78110511967795626e-01 1.11539583653696303e-01 -2.78110511967795626e-01 2.07879077770060960e-04 4.60642179574117659e-04
3.02100000000000000e+10 -5.58881721432378901e-04 3.78147450226725107e-04 1.99914892150272229e-02 -3.00431457384838618e-01 1.99914892150272229e-02 -3.00431457384838618e-01 6.78100538333091242e-05 -9.53123292144439339e-04
3.02200000000000000e+10 -7.90574605583862946e-05 -4.75316363881042635e-04 -7.50781895894866297e-02 -2.91767388829560270e-01 -7.50781895894866297e-02 -2.91767388829560270e-01 5.48161445271569858e-04 1.14168974081600640e-03
3.02300000000000000e+10 -7.33739052396366071e-04 -2.32417774719647247e-04 -1.60457049383653599e-01 -2.53830551615460032e-01 -1.60457049383653599e-01 -2.53830551615460032e-01 2.68395281963230373e-04 -1.06204928258483115e-04
3.02400000000000000e+10 -3.25663575027615329e-04 7.21655611604376412e-05 -2.31504551831402616e-01 -1.91665062106131601e-01 -2.31504551831402616e-01 -1.91665062106131601e-01 5.07837055034028682e-04 1.43432511354962529e-04
3.02500000000000000e+10 -9.99354191165767935e-04 -1.06628304992300422e-03 -2.78921568914869022e-01 -1.10114335536599356e-01 -2.78921568914869022e-01 -1.10114335536599356e-01 -1.47660449353389248e-04 2.90048468231726068e-04
3.02600000000000000e+10 1.51740227395681692e-04 -5.41465887346279659e-04 -3.00063097643155530e-01 -2.02391721235398343e-02 -3.00063097643155530e-01 -2.02391721235398343e-02 -4.20603343098501620e-04 -1.35377639046418730e-04
3.02700000000000000e+10 6.13223681548792209e-04 -8.71624166963032797e-05 -2.89957453081170491e-01 7.51732412761459690e-02 -2.89957453081170491e-01 7.51732412761459690e-02 -5.30882354383203437e-04 9.00032595467515728e-04
3.02800000000000000e+10 4.32698417128255788e-04 2.27200522141556303e-04 -2.53315612037422699e-01 1.61189465757036715e-01 -2.53315612037422699e-01 1.61189465757036715e-01 8.78661271359193127e-04 -6.99068732095277693e-04
3.02900000000000000e+10 1.28072325578441133e-03 -8.52872926244749806e-04 -1.91532067807323431e-01 2.31167797527720820e-01 -1.91532067807323431e-01 2.31167797527720820e-01 1.05451740121869177e-04 1.90827028691628928e-04
3.03000000000000000e+10 -3.23280345858902290e-04 -1.69511589032462985e-03 -1.10249568919780563e-01 2.80392057097666569e-01 -1.10249568919780563e-01 2.80392057097666569e-01 3.58537531336862610e-04 6.27642773431221607e-04
3.03100000000000000e+10 -7.08657920830572724e-05 -4.09683631541578569e-04 -1.96567122382579514e-02 3.00443134782538757e-01 -1.96567122382579514e-02 3.00443134782538757e-01 -2.99644381707820685e-04 3.68678464956573998e-04
3.03200000000000000e+10 -1.33557203945654712e-03 1.73127476799438416e-04 7.25114789196981552e-02 2.90953555849199241e-01 7.25114789196981552e-02 2.90953555849199241e-01 -2.76060895807037283e-04 -1.05571842288308877e-03
3.03300000000000000e+10 -4.80363808390006934e-04 5.85346492104113145e-04 1.60772131511998068e-01 2.53245235568034466e-01 1.60772131511998068e-01 2.53245235568034466e-01 1.67870497423045357e-04 -1.70247132513625288e-04
3.03400000000000000e+10 -4.31596192078668908e-04 -2.09861145537245031e-04 2.30729529106426273e-01 1.91831184421857093e-01 2.30729529106426273e-01 1.91831184421857093e-01 -3.70887669215032160e-04 -1.48322562736122798e-03
3.03500000000000000e+10 8.03905972113047552e-04 -5.68764286934428614e-04 2.78936592553570450e-01 1.11491586745506993e-01 2.78936592553570450e-01 1.11491586745506993e-01 4.51135294037908994e-05 -5.78649832281372004e-05
3.03600000000000000e+10 7.40282156133313727e-04 1.94822930434967610e-04 3.00107982722717326e-01 2.01500354223026583e-02 3.00107982722717326e-01 2.01500354223026583e-02 6.93777459315671565e-04 6.61777036062962732e-04
3.03700000000000000e+10 2.05695896243349245e-04 -5.27281047629879921e-05 2.90388330326434074e-01 -7.44116362358858557e-02 2.90388330326434074e-01 -7.44116362358858557e-02 -2.69455911621543649e-04 8.57250935638505251e-05
3.03800000000000000e+10 4.77783199454950402e-05 2.09090995881117201e-04 2.52927461130892539e-01 -1.60364707087321035e-01 2.52927461130892539e-01 -1.60364707087321035e-01 -2.68336050521623547e-04 3.02459185556253616e-04
3.03900000000000000e+10 8.49706140828301128e-05 -8.02338591809725562e-04 1.90959517348506524e-01 -2.30089542973390210e-01 1.90959517348506524e-01 -2.30089542973390210e-01 6.63246218116322352e-04 1.01946113144491608e-03
3.04000000000000000e+10 4.20330002818986132e-06 1.73383164718938051e-04 1.10752803723229695e-01 -2.78922653342117077e-01 1.10752803723229695e-01 -2.78922653342117077e-01 7.68949731100444507e-04 3.46319429120247517e-04
3.04100000000000000e+10 -1.06181873215177775e-03 -5.00894134536347224e-04 1.87854985522929972e-02 -2.97919142756847111e-01 1.87854985522929972e-02 -2.97919142756847111e-01 -3.56542282719101008e-04 1.77278319218544318e-04
3.04200000000000000e+10 -3.10896356585460012e-04 9.16542796868626973e-04 -7.62845570599751249e-02 -2.90049197860420382e-01 -7.62845570599751249e-02 -2.90049197860420382e-01 9.78506038454268279e-04 1.33209608860289548e-03
3.04300000000000000e+10 2.00127184047220339e-04 -3.56012930151609170e-04 -1.60558187111055850e-01 -2.52151553018351626e-01 -1.60558187111055850e-01 -2.52151553018351626e-01 3.53229562898379427e-04 9.29886767863789148e-04
3.04400000000000000e+10 4.74903265540331900e-04 4.34948594383726642e-04 -2.30790663866398654e-01 -1.89190210830578548e-01 -2.30790663866398654e-01 -1.89190210830578548e-01 -7.91344280773576946e-04 -6.92964300724809869e-04
3.04500000000000000e+10 -2.45558726220797741e-04 3.26810091202595480e-05 -2.79984547474836198e-01 -1.09330992127558077e-01 -2.79984547474836198e-01 -1.09330992127558077e-01 -1.44644593678940623e-03 -1.83872693041344735e-04
3.04600000000000000e+10 -2.99586089483116894e-04 5.92624856949486344e-04 -2.97958573703443030e-01 -1.92903147163901723e-02 -2.97958573703443030e-01 -1.92903147163901723e-02 -7.93728128318371608e-04 -5.94867244313885104e-04
3.04700000000000000e+10 -4.36848759627816421e-04 5.87864983431780571e-04 -2.89366899209828776e-01 7.47329687876710502e-02 -2.89366899209828776e-01 7.47329687876710502e-02 7.29479619016599697e-04 -1.20264266464588441e-03
3.04800000000000000e+10 5.43919302650063019e-04 2.79846701464204854e-04 -2.51678688986775256e-01 1.59467383137359808e-01 -2.51678688986775256e-01 1.59467383137359808e-01 -1.92826647004851571e-05 -1.32965694739794181e-03
3.04900000000000000e+10 -3.86101342378505289e-04 -1.27704152144055908e-05 -1.89519118448516904e-01 2.30892161262122031e-01 -1.89519118448516904e-01 2.30892161262122031e-01 1.84961382107449133e-03 2.88869302687898755e-04
3.05000000000000000e+10 -4.58241377795608619e-04 4.05265981787473724e-04 -1.08780398229507247e-01 2.78493100782388869e-01 -1.08780398229507247e-01 2.78493100782388869e-01 2.55085026441951657e-04 8.62471575764853725e-04
3.05100000000000000e+10 -1.67514553889115854e-03 1.87003105615412749e-04 -1.82755086176537192e-02 2.97779277442419055e-01 -1.82755086176537192e-02 2.97779277442419055e-01 -8.00497210769916226e-04 9.97499864055906142e-05
3.05200000000000000e+10 3.99678269577496872e-04 -7.27901405095649715e-04 7.42182828615960272e-02 2.87438806597515195e-01 7.42182828615960272e-02 2.87438806597515195e-01 4.33745208113168004e-04 -4.20481082536435370e-04
3.05300000000000000e+10 -2.89760260285365924e-04 1.09401397173964710e-03 1.60697191267178158e-01 2.51010249240405603e-01 1.60697191267178158e-01 2.51010249240405603e-01 1.12217583991646667e-03 -4.11331683322703945e-04
3.05400000000000000e+10 1.54278035677659861e-03 -8.18334598265836708e-05 2.30083201220867478e-01 1.89936303532052375e-01 2.30083201220867478e-01 1.89936303532052375e-01 -9.40856983421897415e-04 7.48520015729257438e-04
3.05500000000000000e+10 1.83859090929536913e-05 1.08528309962747059e-03 2.78940735241959448e-01 1.09513469211839784e-01 2.78940735241959448e-01 1.09513469211839784e-01 -5.08198335856902038e-04 -6.80989693973952856e-04
3.05600000000000000e+10 4.34317169132091615e-04 2.79616120260937819e-04 2.97706828051617411e-01 1.82689104136547001e-02 2.97706828051617411e-01 1.82689104136547001e-02 -1.00205762980004978e-03 1.34533418442560923e-03
3.05700000000000000e+10 2.65763895365878414e-04 1.84870184534281431e-03 2.87645592004310113e-01 -7.53187838042842783e-02 2.87645592004310113e-01 -7.53187838042842783e-02 -7.19131489163542812e-04 6.09595570834995694e-04
3.05800000000000000e+10 1.88373299000779546e-04 6.62388536773364609e-05 2.50677733810019343e-01 -1.60327530671790897e-01 2.50677733810019343e-01 -1.60327530671790897e-01 1.83819271492915033e-04 1.43628266207792410e-04
3.05900000000000000e+10 -1.67691252466454878e-05 1.65868994615522245e-04 1.89418032289138089e-01 -2.31635655144528940e-01 1.89418032289138089e-01 -2.31635655144528940e-01 7.65268197193778984e-05 -1.94318057818295336e-04
3.06000000000000000e+10 1.59894809843595729e-03 2.62963055049815085e-04 1.09428828888649451e-01 -2.78727806355667851e-01 1.09428828888649451e-01 -2.78727806355667851e-01 2.17967015332073971e-04 -1.51864000720940660e-03
3.06100000000000000e+10 4.42030358812604081e-04 -7.20029383248412945e-05 1.74725735579547153e-02 -2.97550384734477702e-01 1.74725735579547153e-02 -2.97550384734477702e-01 -1.84775660900811541e-04 3.61762922820794020e-04
3.06200000000000000e+10 1.89812977690779604e-04 5.69955984069086445e-04 -7.52514705933239325e-02 -2.87481537411949428e-01 -7.52514705933239325e-02 -2.87481537411949428e-01 -3.57136921836846309e-04 -1.37119784629517543e-03
3.06300000000000000e+10 -4.45346527724622737e-04 3.25996529254193640e-04 -1.60616650682750078e-01 -2.51030361231333099e-01 -1.60616650682750078e-01 -2.51030361231333099e-01 -3.89386884715933084e-04 -2.25383216044050034e-04
3.06400000000000000e+10 -5.52225279501149919e-04 2.94024430706519050e-04 -2.31286832994164998e-01 -1.89570735027437681e-01 -2.31286832994164998e-01 -1.89570735027437681e-01 2.31029866914863951e-04 4.30916951724253760e-04
3.06500000000000000e+10 -2.84055032052587110e-04 9.95764996478144468e-04 -2.78022873853342511e-01 -1.08317517563191301e-01 -2.78022873853342511e-01 -1.08317517563191301e-01 7.48762916303586865e-04 1.39383386669140021e-03
3.06600000000000000e+10 -1.70944671257257028e-03 -9.26074727300708303e-04 -2.98664986278439348e-01 -1.73780933918528599e-02 -2.98664986278439348e-01 -1.73780933918528599e-02 3.33118285530202324e-04 5.39508668693433808e-04
3.06700000000000000e+10 -1.40210529791524549e-04 4.35961746912070234e-04 -2.87943668014541077e-01 7.52071045891997275e-02 -2.87943668014541077e-01 7.52071045891997275e-02 5.53269916112438952e-04 -3.96840404541600985e-04
3.06800000000000000e+10 -6.87525063999545275e-04 7.40467660396612365e-04 -2.50391699224461528e-01 1.59677888055733158e-01 -2.50391699224461528e-01 1.59677888055733158e-01 1.22788720033364506e-04 2.12414106831882522e-04
3.06900000000000000e+10 -7.08405800037085575e-04 5.96121042667918264e-04 -1.89008545668094913e-01 2.28978720590228224e-01 -1.89008545668094913e-01 2.28978720590228224e-01 -4.50295102435802063e-06 1.85671325744727489e-04
3.07000000000000000e+10 5.68706675407228395e-04 7.16112335071175860e-04 -1.07118695854436369e-01 2.76658537437679986e-01 -1.07118695854436369e-01 2.76658537437679986e-01 1.80317236064076451e-04 -2.11224942224615098e-04
3.07100000000000000e+10 1.97449369681570742e-04 -1.00750244434294803e-03 -1.68483141790361501e-02 2.96132985615503996e-01 -1.68483141790361501e-02 2.96132985615503996e-01 -8.40768699573350839e-04 3.63898652834838768e-06
3.07200000000000000e+10 -5.51905315104962626e-04 1.69259942061438271e-04 7.49233533733223989e-02 2.86876029184530201e-01 7.49233533733223989e-02 2.86876029184530201e-01 7.34999718851326515e-04 -8.50433023787416963e-04
3.07300000000000000e+10 7.05583898031069182e-05 4.42890789237501535e-05 1.60274920852748554e-01 2.50670768005909317e-01 1.60274920852748554e-01 2.50670768005909317e-01 5.41932833470898162e-04 -1.54331922084420992e-03
3.07400000000000000e+10 -4.97765759551570396e-07 1.98777876445452480e-04 2.30717416995995961e-01 1.87899192029232942e-01 2.30717416995995961e-01 1.87899192029232942e-01 9.34840617515058443e-04 2.99444383409759367e-05
3.07500000000000000e+10 7.65517380325029129e-04 1.30328218157850078e-04 2.76700404040910009e-01 1.08190236275850338e-01 2.76700404040910009e-01 1.08190236275850338e-01 4.28931648419155409e-04 6.94437115294809621e-04
3.07600000000000000e+10 7.85521049153767390e-04 7.56955346980741901e-04 2.97950505694681733e-01 1.64920314926587722e-02 2.97950505694681733e-01 1.64920314926587722e-02 -4.54898530692809380e-04 -7.00978869419622555e-04
3.07700000000000000e+10 2.67208900767211695e-04 -7.62421399042369241e-04 2.86328070726335315e-01 -7.56790990472475944e-02 2.86328070726335315e-01 -7.56790990472475944e-02 4.35428545757065915e-04 5.09096053825337639e-04
3.07800000000000000e+10 -5.20810995657917789e-04 1.19717526429243709e-03 2.48947384570320063e-01 -1.61521005336852763e-01 2.48947384570320063e-01 -1.61521005336852763e-01 4.53999416028751232e-04 3.12182265458724325e-04
3.07900000000000000e+10 -8.51530251000479055e-04 -1.13779933191430994e-03 1.88955124459964624e-01 -2.29760860230258102e-01 1.88955124459964624e-01 -2.29760860230258102e-01 3.48944252832840830e-04 4.64874367362213832e-04
3.08000000000000000e+10 6.78535745445364583e-04 -4.61794858464905516e-04 1.06349089017935217e-01 -2.76752227996206968e-01 1.06349089017935217e-01 -2.76752227996206968e-01 -5.48191533561408065e-05 7.48708756183824597e-04
3.08100000000000000e+10 2.25896249039612236e-03 1.14223732654472805e-03 1.55916389923626726e-02 -2.96618371237283629e-01 1.55916389923626726e-02 -2.96618371237283629e-01 4.57426515017811852e-04 -4.22049981219584178e-04
3.08200000000000000e+10 9.54364881346087446e-04 5.51185229493027306e-06 -7.54835688594480553e-02 -2.87068074377418991e-01 -7.54835688594480553e-02 -2.87068074377418991e-01 8.81650706105757296e-04 2.03982897112749834e-03
3.08300000000000000e+10 1.37499186918237689e-04 1.49596661665028210e-04 -1.61505833274844024e-01 -2.49507581193683964e-01 -1.61505833274844024e-01 -2.49507581193683964e-01 -7.36951170064653778e-04 4.20986577163320376e-04
3.08400000000000000e+10 1.03992731962061118e-03 -5.42964910432260561e-04 -2.29506683270095935e-01 -1.86249691301331566e-01 -2.29506683270095935e-01 -1.86249691301331566e-01 -3.36261757514375091e-04 -2.88415950093393210e-04
3.08500000000000000e+10 -5.26619151064376049e-04 1.60217439517001530e-04 -2.76969776722524208e-01 -1.07247588693275317e-01 -2.76969776722524208e-01 -1.07247588693275317e-01 2.04575705096979933e-04 -6.23261484944973672e-04
3.08600000000000000e+10 -2.79183701282442558e-04 8.94760476475715957e-04 -2.95619160252157898e-01 -1.53812146211166241e-02 -2.95619160252157898e-01 -1.53812146211166241e-02 -4.18532132540055859e-04 6.02576265075361033e-04
3.08700000000000000e+10 2.75320642823229989e-04 -1.05646573656278616e-03 -2.87114654464163843e-01 7.55443141706710064e-02 -2.87114654464163843e-01 7.55443141706710064e-02 -2.54473115396266125e-04 9.31634170232582457e-04
3.08800000000000000e+10 -3.83718004156670628e-04 4.77705459001204430e-04 -2.47999691326576455e-01 1.62277198666368666e-01 -2.47999691326576455e-01 1.62277198666368666e-01 -1.06349938352313174e-03 -4.50395105263127723e-04
3.08900000000000000e+10 5.52887142716022113e-04 -1.13221973079826550e-03 -1.86268832527289235e-01 2.30809363903300729e-01 -1.86268832527289235e-01 2.30809363903300729e-01 1.53776016696164280e-04 -1.21114229989950403e-04
3.09000000000000000e+10 1.38224449720196789e-04 -3.05598541434755561e-05 -1.05852534548300806e-01 2.76349108697708234e-01 -1.05852534548300806e-01 2.76349108697708234e-01 9.25524586643286409e-04 -4.09793875025215627e-04
3.09100000000000000e+10 1.22622180623844688e-03 1.31696007988364315e-03 -1.70809160734873809e-02 2.95808502092284376e-01 -1.70809160734873809e-02 2.95808502092284376e-01 -6.93276817407400062e-04 -8.82296394850061580e-04
3.09200000000000000e+10 5.87859636767751629e-04 2.28934280093313777e-04 7.71918042343002486e-02 2.86723709262969750e-01 7.71918042343002486e-02 2.86723709262969750e-01 2.28131069717799962e-04 2.59247954717406362e-04
3.09300000000000000e+10 1.52275835947140233e-04 1.29456501323096614e-03 1.61869819252996650e-01 2.49766650881167257e-01 1.61869819252996650e-01 2.49766650881167257e-01 -5.39697017080653305e-04 8.16530058087815906e-04
3.09400000000000000e+10 5.50574231329758372e-04 6.96079840134669896e-04 2.30627141023703686e-01 1.86604553333998502e-01 2.30627141023703686e-01 1.86604553333998502e-01 4.34331247289254272e-04 -1.73824286897093414e-03
3.09500000000000000e+10 -4.78706441044579297e-04 -8.99419222995094221e-04 2.77462972233827265e-01 1.06171020799242219e-01 2.77462972233827265e-01 1.06171020799242219e-01 9.62460662328251323e-04 -4.14769007971864812e-04
3.09600000000000000e+10 -4.31383133486483612e-04 -7.48055454681270735e-05 2.96729064913799245e-01 1.46231912179695112e-02 2.96729064913799245e-01 1.46231912179695112e-02 8.99499064293031594e-05 -1.41602618686237857e-03
3.09700000000000000e+10 4.90303990732005967e-04 -3.44677502546756698e-04 2.86073468312202983e-01 -7.79693530300955284e-02 2.86073468312202983e-01 -7.79693530300955284e-02 3.09592529302319991e-04 -1.18935565039068715e-04
3.09800000000000000e+10 -3.36335040529717601e-04 -2.88936656780820810e-04 2.47988451390781656e-01 -1.60931171782237481e-01 2.47988451390781656e-01 -1.60931171782237481e-01 -1.92737009757292909e-04 -6.54221762444235863e-04
3.09900000000000000e+10 5.75428435060732456e-04 -3.86136993127824204e-04 1.85689594197796626e-01 -2.30913286346451030e-01 1.85689594197796626e-01 -2.30913286346451030e-01 -8.24663800895741980e-04 4.79549940778506109e-04
3.10000000000000000e+10 -5.69628610397499664e-04 6.34882140062693672e-04 1.05957752666314076e-01 -2.76339116947268815e-01 1.05957752666314076e-01 -2.76339116947268815e-01 3.26048529539703976e-04 -9.20849346273702155e-04
3.10100000000000000e+10 -9.14837593981646796e-04 6.70347152152043417e-04 1.48529496175651594e-02 -2.97095749645600149e-01 1.48529496175651594e-02 -2.97095749645600149e-01 -1.62100607514904880e-03 -8.70714816891122101e-04
3.10200000000000000e+10 4.95806071871663571e-04 -1.14870796647025095e-03 -7.57844574691875078e-02 -2.86315337307524176e-01 -7.57844574691875078e-02 -2.86315337307524176e-01 8.17925105126896608e-04 -6.85726694254763596e-04
3.10300000000000000e+10 6.21799895632634816e-04 2.73346494965516214e-04 -1.61675872270450688e-01 -2.47055198522223213e-01 -1.61675872270450688e-01 -2.47055198522223213e-01 -1.12397719201141259e-03 1.69029518641144446e-04
3.10400000000000000e+10 8.09293452694146483e-04 -5.19466577537922979e-04 -2.29902297812459827e-01 -1.85378854177741831e-01 -2.29902297812459827e-01 -1.85378854177741831e-01 -2.69717791781387138e-04 6.92629281043213928e-04
3.10500000000000000e+10 -2.05226524656844335e-03 2.55771299177602737e-04 -2.77202812561775702e-01 -1.06199427810735270e-01 -2.77202812561775702e-01 -1.06199427810735270e-01 -3.24693973478363488e-04 -5.03796485666435385e-04
3.10600000000000000e+10 5.41437212879270703e-05 -4.05349261258425319e-04 -2.95607245988334433e-01 -1.41829920028478159e-02 -2.95607245988334433e-01 -1.41829920028478159e-02 -3.93393967740737988e-04 -2.72284313441335628e-04
3.10700000000000000e+10 -1.90364844595369007e-04 -6.66872035782325990e-04 -2.84680270284589698e-01 7.62726811192135645e-02 -2.84680270284589698e-01 7.62726811192135645e-02 2.24353979933034726e-04 8.69355363655561000e-04
3.10800000000000000e+10 -5.07346097022789641e-04 6.68445799376829529e-04 -2.47558595140164178e-01 1.61717301139877395e-01 -2.47558595140164178e-01 1.61717301139877395e-01 -7.23676524453956230e-05 9.11001090299217581e-04
3.10900000000000000e+10 4.93111637920738005e-04 -2.04405660594535708e-03 -1.85467164109950566e-01 2.30859472002598681e-01 -1.85467164109950566e-01 2.30859472002598681e-01 2.06142830015917456e-03 1.37431165922887848e-04
3.11000000000000000e+10 -4.09591053876963169e-04 -8.43461310362937167e-04 -1.05639896940414327e-01 2.76264803256285996e-01 -1.05639896940414327e-01 2.76264803256285996e-01 -2.06727259354224784e-04 -1.41612907705476428e-04
3.11100000000000000e+10 -7.63014999560231115e-08 -2.83322702425155173e-04 -1.36082122385824990e-02 2.95356060573561563e-01 -1.36082122385824990e-02 2.95356060573561563e-01 2.79566077897039269e-04 1.38992973011631813e-03
3.11200000000000000e+10 1.14131852970972834e-04 -7.61863201362447395e-07 7.68903454397065894e-02 2.85746243299287273e-01 7.68903454397065894e-02 2.85746243299287273e-01 -5.31291166238390383e-04 -6.68968694356624426e-04
3.11300000000000000e+10 3.82192751308773986e-04 -1.06901329581740221e-04 1.62760282713607624e-01 2.46465429415050591e-01 1.62760282713607624e-01 2.46465429415050591e-01 -1.23888609574406526e-03 9.30055936316624113e-04
3.11400000000000000e+10 -3.62877074389266559e-04 5.94317863558480063e-04 2.30410762734383462e-01 1.85086920200502519e-01 2.30410762734383462e-01 1.85086920200502519e-01 5.60145417975642607e-05 -7.18182064837441666e-04
3.11500000000000000e+10 -4.66065131313587219e-04 -1.53908532446526600e-03 2.76046634376828415e-01 1.04210141350412386e-01 2.76046634376828415e-01 1.04210141350412386e-01 -1.13819855636001881e-03 7.78994870333187114e-04
3.11600000000000000e+10 -4.32120056244222797e-04 -1.81956776973377988e-04 2.96411882335952725e-01 1.48472359158198352e-02 2.96411882335952725e-01 1.48472359158198352e-02 -1.43866351943455826e-03 -3.12054697315178233e-04
3.11700000000000000e+10 -4.91364822719418952e-04 -1.41337475719582764e-04 2.84906936385575738e-01 -7.82836676030569112e-02 2.84906936385575738e-01 -7.82836676030569112e-02 8.01946942091864368e-04 -6.32697942475042390e-05
3.11800000000000000e+10 1.54949759734360789e-03 -7.72784392182048114e-04 2.47558869404673892e-01 -1.61287005338556472e-01 2.47558869404673892e-01 -1.61287005338556472e-01 8.51637082083439904e-04 -4.80913536723177209e-04
3.11900000000000000e+10 -7.39458749537492206e-04 -4.86528712197085772e-04 1.85713626755965172e-01 -2.30875431743709253e-01 1.85713626755965172e-01 -2.30875431743709253e-01 5.74646578686395515e-04 -4.76248611240383582e-04
3.12000000000000000e+10 -6.48802113895209642e-04 9.21405406677485881e-04 1.03611102716538991e-01 -2.74339708856753739e-01 1.03611102716538991e-01 -2.74339708856753739e-01 1.05295507760142025e-03 6.11597348753880124e-04
3.12100000000000000e+10 -8.62254052961311648e-05 2.69930271671816322e-04 1.39452259762557155e-02 -2.94625142619619917e-01 1.39452259762557155e-02 -2.94625142619619917e-01 -1.05357252575042715e-03 -2.92809742804286011e-04
3.12200000000000000e+10 -4.66083531689288465e-04 2.18976908072084867e-03 -7.74076382120782031e-02 -2.84013149187830050e-01 -7.74076382120782031e-02 -2.84013149187830050e-01 -1.13233811859579230e-04 1.00444384619981079e-03
3.12300000000000000e+10 -1.29722755894217680e-03 2.73467510733032962e-04 -1.62859502754679530e-01 -2.47288621987146379e-01 -1.62859502754679530e-01 -2.47288621987146379e-01 -2.06548179404260736e-04 -5.01843308054115284e-04
3.12400000000000000e+10 -6.17534513071827957e-04 3.44195823828018005e-04 -2.30557670875108367e-01 -1.84250068121808719e-01 -2.30557670875108367e-01 -1.84250068121808719e-01 2.08279964326157490e-05 -3.53366366424152499e-04
3.12500000000000000e+10 3.94416059035075940e-05 -7.90094566372629651e-04 -2.74626524609942579e-01 -1.03198100514660052e-01 -2.74626524609942579e-01 -1.03198100514660052e-01 8.88402272900167575e-04 1.93378840226541600e-04
3.12600000000000000e+10 7.66479848030994417e-04 -6.11323436758533733e-04 -2.94707584667854405e-01 -1.37544669735650237e-02 -2.94707584667854405e-01 -1.37544669735650237e-02 2.94961941742718419e-04 -5.60126135567599759e-05
3.12700000000000000e+10 -3.78962881847954300e-04 -1.66966875792818177e-04 -2.82533773029311652e-01 7.73751586152997967e-02 -2.82533773029311652e-01 7.73751586152997967e-02 -5.63550514835966946e-04 -7.28875672489968799e-04
3.12800000000000000e+10 -1.07544825217260640e-04 -3.40777857690000707e-05 -2.45175728379767560e-01 1.61846243013737734e-01 -2.45175728379767560e-01 1.61846243013737734e-01 -1.01998013198471621e-04 -2.73747587619006750e-04
3.12900000000000000e+10 -8.80965524529243871e-04 -1.04694565386079740e-03 -1.83929026771939591e-01 2.30715388534428328e-01 -1.83929026771939591e-01 2.30715388534428328e-01 1.37497880144067425e-03 1.95668594334110543e-04
3.13000000000000000e+10 3.43740322420308698e-04 2.65369568188392278e-04 -1.03010467124336091e-01 2.76243472925497779e-01 -1.03010467124336091e-01 2.76243472925497779e-01 7.11894601333220764e-04 -4.17398495240448399e-04
3.13100000000000000e+10 4.90900383973056210e-04 7.68547746911564999e-04 -1.44147166744422531e-02 2.93505585068312980e-01 -1.44147166744422531e-02 2.93505585068312980e-01 2.60687281090832366e-04 -6.76491358731961439e-04
3.13200000000000000e+10 -1.07961349004608194e-03 1.19223501224665200e-04 7.94156981332937995e-02 2.83913779443960290e-01 7.94156981332937995e-02 2.83913779443960290e-01 5.30984799522694439e-04 -2.50076656996831785e-04
3.13300000000000000e+10 -3.29125625480462987e-04 -8.03437390718425576e-05 1.62074325221998106e-01 2.44953694738225397e-01 1.62074325221998106e-01 2.44953694738225397e-01 -1.07820996233479855e-03 8.83463950115281069e-04
3.13400000000000000e+10 -1.12113400144457339e-03 1.30295110252918360e-03 2.29981910678573959e-01 1.83499305491157699e-01 2.29981910678573959e-01 1.83499305491157699e-01 9.36940068649940480e-04 3.11485757101881368e-04
3.13500000000000000e+10 -1.09488033987254017e-03 -1.55318685414303410e-03 2.75512152687196310e-01 1.03554126538434280e-01 2.75512152687196310e-01 1.03554126538434280e-01 3.02222557694495173e-05 -1.61280364838982003e-03
3.13600000000000000e+10 1.77051395861337589e-04 -7.90510977387048159e-04 2.94180536227955758e-01 1.21135483070145527e-02 2.94180536227955758e-01 1.21135483070145527e-02 6.42090886643048586e-04 3.28021649034620870e-04
3.13700000000000000e+10 2.73379270316284194e-04 -1.68890034398496005e-04 2.83128844786205758e-01 -7.92205917461122761e-02 2.83128844786205758e-01 -7.92205917461122761e-02 4.85009991233434151e-04 9.59349724180878966e-04
3.13800000000000000e+10 -6.93117983146135803e-05 -6.19344524396344136e-04 2.45557461200570593e-01 -1.62499229445594529e-01 2.45557461200570593e-01 -1.62499229445594529e-01 3.01091282641492101e-04 -1.13510925863197568e-03
3.13900000000000000e+10 -9.96873870531758775e-04 -7.26665808120429985e-04 1.82449675210570678e-01 -2.29257491136328095e-01 1.82449675210570678e-01 -2.29257491136328095e-01 1.03788949883375876e-03 -1.25280252899235547e-03
3.14000000000000000e+10 4.53224250557839230e-05 3.07101040347678594e-04 1.02737451111903771e-01 -2.75030816001934075e-01 1.02737451111903771e-01 -2.75030816001934075e-01 -5.55366882730352744e-04 4.00939710038645126e-04
3.14100000000000000e+10 3.42721721891325336e-05 -8.53030269688822879e-04 1.28307329574752736e-02 -2.93840209948228459e-01 1.28307329574752736e-02 -2.93840209948228459e-01 -8.80373967134559878e-05 -1.04706731710661242e-04
3.14200000000000000e+10 7.09906476165697749e-04 1.20447084837659461e-04 -7.92865976202139083e-02 -2.82518213042031008e-01 -7.92865976202139083e-02 -2.82518213042031008e-01 4.56700381765710775e-04 -9.47369365021377046e-04
3.14300000000000000e+10 3.45337270824310708e-04 1.04225202093149788e-03 -1.62434476020806018e-01 -2.44548621278227379e-01 -1.62434476020806018e-01 -2.44548621278227379e-01 -3.56706314335663546e-04 -1.99610267906967601e-04
3.14400000000000000e+10 -1.30146533052481777e-04 1.52665215256347193e-03 -2.29626342498039759e-01 -1.82531546394398142e-01 -2.29626342498039759e-01 -1.82531546394398142e-01 4.02579534709771871e-04 -4.61821197500978363e-04
3.14500000000000000e+10 1.74612388332977546e-03 6.81028414887886388e-04 -2.74942092399349636e-01 -1.02942825786585104e-01 -2.74942092399349636e-01 -1.02942825786585104e-01 8.35778231731722481e-04 7.86572677010853008e-05
3.14600000000000000e+10 6.26669933168019934e-05 1.88519304611543294e-04 -2.91780302846191941e-01 -1.30964176207125950e-02 -2.91780302846191941e-01 -1.30964176207125950e-02 3.75351558935881850e-04 7.43352982232731857e-04
3.14700000000000000e+10 -2.57107706025596727e-04 -4.89080881956364304e-04 -2.82097339881785925e-01 7.86350183600508651e-02 -2.82097339881785925e-01 7.86350183600508651e-02 1.19129002186048175e-03 -3.66246561495803076e-05
3.14800000000000000e+10 -2.15990824876764899e-04 -4.43772906798589443e-04 -2.43982300221460224e-01 1.65117069765761099e-01 -2.43982300221460224e-01 1.65117069765761099e-01 1.14036561358733042e-03 -5.53870829412017401e-04
3.14900000000000000e+10 1.78612471801304869e-05 -3.08080476471314895e-04 -1.82790652802757719e-01 2.30199109463360779e-01 -1.82790652802757719e-01 2.30199109463360779e-01 -4.48143350856969693e-04 3.18594240143553432e-04
3.15000000000000000e+10 -2.85573734683662876e-04 -8.07543078075974806e-04 -1.01991331829185447e-01 2.74521904647601567e-01 -1.01991331829185447e-01 2.74521904647601567e-01 5.37284310080658484e-04 1.07473341220268125e-04
3.15100000000000000e+10 -3.01171637830059799e-04 -6.87211266816280052e-05 -1.18936380960576755e-02 2.92090625314526842e-01 -1.18936380960576755e-02 2.92090625314526842e-01 -7.09661377940732957e-04 2.20561576731661632e-05
3.15200000000000000e+10 -1.39482037536250492e-04 9.40548155477420009e-05 7.97562233038911494e-02 2.82592228675349944e-01 7.97562233038911494e-02 2.82592228675349944e-01 1.34479872205102457e-03 3.90887628505400041e-04
3.15300000000000000e+10 -1.52784171597325339e-03 4.37062676458855074e-04 1.61574843290982761e-01 2.44495983582938364e-01 1.61574843290982761e-01 2.44495983582938364e-01 4.78181586469788743e-04 7.20549350378196036e-05
3.15400000000000000e+10 -3.39160835215335558e-04 -8.10595114948984901e-04 2.28857597418979736e-01 1.81049077136876096e-01 2.28857597418979736e-01 1.81049077136876096e-01 -5.35110490101578669e-04 -3.60577407173249761e-04
3.15500000000000000e+10 7.24429284457463727e-04 3.94917024708371403e-05 2.74972586331794444e-01 1.01104364219739132e-01 2.74972586331794444e-01 1.01104364219739132e-01 1.07779386170129415e-04 4.68246907856075976e-04
3.15600000000000000e+10 2.35455669229155085e-04 1.57545571017959733e-04 2.93994689426239963e-01 1.16611908416739667e-02 2.93994689426239963e-01 1.16611908416739667e-02 1.06045888713535697e-04 -3.57144940625265443e-04
3.15700000000000000e+10 4.78154370109439410e-05 -2.48773859468212079e-04 2.81874985494768582e-01 -8.15147947521629029e-02 2.81874985494768582e-01 -8.15147947521629029e-02 1.02188670112783706e-03 2.77566473294082940e-04
3.15800000000000000e+10 -3.99935611205375183e-04 -5.75416165933502434e-04 2.44001457408526606e-01 -1.62363110770423452e-01 2.44001457408526606e-01 -1.62363110770423452e-01 5.83116766753956394e-04 6.03978475066794520e-04
3.15900000000000000e+10 -5.59054423595568159e-05 1.52473314821785586e-04 1.81446725255982128e-01 -2.29952963553855166e-01 1.81446725255982128e-01 -2.29952963553855166e-01 -3.83314031564257877e-04 4.75802334322369535e-04
3.16000000000000000e+10 7.48721941645107201e-04 3.03681394480867116e-04 1.01156987591273881e-01 -2.74453035572735649e-01 1.01156987591273881e-01 -2.74453035572735649e-01 -4.25696533773049725e-04 7.05079052974765474e-04
3.16100000000000000e+10 8.82048931020597174e-04 -1.65749122451759427e-04 1.14393156165545126e-02 -2.90079360248247708e-01 1.14393156165545126e-02 -2.90079360248247708e-01 -1.65785586654732062e-04 -9.99930760235712710e-04
3.16200000000000000e+10 -6.93555027376283203e-04 7.80367213046537895e-04 -7.97587340394936978e-02 -2.81998863629602192e-01 -7.97587340394936978e-02 -2.81998863629602192e-01 5.57209438018700979e-04 2.02486223717187095e-04
3.16300000000000000e+10 -2.43985900907016606e-04 1.20124008727624061e-03 -1.63133009907043852e-01 -2.43173751677227601e-01 -1.63133009907043852e-01 -2.43173751677227601e-01 3.83215897485095040e-04 -6.18107947093423662e-04
3.16400000000000000e+10 -9.32656538258943137e-05 -4.16953233583158584e-04 -2.28118130988087225e-01 -1.80443385961652630e-01 -2.28118130988087225e-01 -1.80443385961652630e-01 -1.03313036051532999e-03 -9.45247636454137953e-04
3.16500000000000000e+10 3.53730484430098699e-04 -4.10044745051928064e-04 -2.73112034885477362e-01 -1.01462562727005587e-01 -2.73112034885477362e-01 -1.01462562727005587e-01 -1.51702353940689940e-04 -1.61975556046542815e-04
3.16600000000000000e+10 -1.01580735672662293e-03 -7.09640106473028299e-04 -2.92142122581022512e-01 -1.03542104258943588e-02 -2.92142122581022512e-01 -1.03542104258943588e-02 -7.18287112283306529e-04 3.11761140870316306e-04
3.16700000000000000e+10 -3.88559927275177288e-04 6.95538971049089114e-04 -2.80807653445627470e-01 7.98391647842475738e-02 -2.80807653445627470e-01 7.98391647842475738e-02 -5.91875167163908537e-04 -8.48176178635768468e-04
3.16800000000000000e+10 1.01585846966886295e-03 2.63914036526294001e-04 -2.41749142277591894e-01 1.63092034894055132e-01 -2.41749142277591894e-01 1.63092034894055132e-01 7.04316470051174928e-04 6.38414102951099269e-05
3.16900000000000000e+10 -2.46808958673303339e-04 5.60733394079546447e-04 -1.80785549554232539e-01 2.30049121076116858e-01 -1.80785549554232539e-01 2.30049121076116858e-01 -5.26477952869981941e-04 -2.81815917413243339e-04
3.17000000000000000e+10 -2.42989056655122285e-04 3.77934804007415946e-04 -9.99998224011806047e-02 2.74979737131586688e-01 -9.99998224011806047e-02 2.74979737131586688e-01 4.96978245657942797e-04 8.22186138342811848e-04
3.17100000000000000e+10 1.18943848882733247e-03 2.63223866611820537e-04 -1.18977849604799020e-02 2.92074253591136535e-01 -1.18977849604799020e-02 2.92074253591136535e-01 1.22350784641796846e-03 -1.37654166253943760e-03
3.17200000000000000e+10 1.01226030674237614e-03 -1.00181662120649010e-03 7.96995621364868789e-02 2.80323840637430988e-01 7.96995621364868789e-02 2.80323840637430988e-01 1.68139535442084643e-04 5.77240295205783886e-04
3.17300000000000000e+10 6.02181338144028647e-04 4.53203748961646341e-04 1.63140018129778130e-01 2.42446409549440328e-01 1.63140018129778130e-01 2.42446409549440328e-01 5.05085667584757609e-04 1.22787136536929944e-03
3.17400000000000000e+10 1.28921117800505488e-03 1.18798789009698719e-04 2.29636825243451748e-01 1.80768696522898648e-01 2.29636825243451748e-01 1.80768696522898648e-01 9.57812649774454590e-05 -5.68320619692779493e-05
3.17500000000000000e+10 -1.67241884402621931e-03 1.10998668773035320e-04 2.73911814512551255e-01 1.00773537511693892e-01 2.73911814512551255e-01 1.00773537511693892e-01 -6.25498910600329021e-04 2.40695640463591502e-04
3.17600000000000000e+10 -1.75668138896102762e-03 1.11162372080399305e-03 2.92698724923502851e-01 1.08443697416657544e-02 2.92698724923502851e-01 1.08443697416657544e-02 5.86657089548996776e-04 1.72031233349839827e-03
3.17700000000000000e+10 -8.92443890237436862e-04 -7.87067869306259265e-04 2.79983751138338399e-01 -7.94986583453314438e-02 2.79983751138338399e-01 -7.94986583453314438e-02 5.43941696164678247e-04 -4.44250061436872012e-04
3.17800000000000000e+10 -1.23552216989157799e-03 -1.55086117065093918e-04 2.41040680641947114e-01 -1.61940933742238002e-01 2.41040680641947114e-01 -1.61940933742238002e-01 7.40161366499304026e-05 1.62112546292961126e-04
3.17900000000000000e+10 -2.16778815938324193e-04 -4.68674183595389033e-05 1.79896641810743635e-01 -2.30976094288741218e-01 1.79896641810743635e-01 -2.30976094288741218e-01 -3.80635763590656678e-04 1.21498201111958190e-03
3.18000000000000000e+10 1.89425899318679367e-03 7.75928575661684176e-04 9.91453137795894751e-02 -2.72914162913760916e-01 9.91453137795894751e-02 -2.72914162913760916e-01 -8.47321807701550012e-04 -4.57360148439607365e-04
3.18100000000000000e+10 4.95557886329221590e-04 -8.61287597380169497e-05 1.12629412077659159e-02 -2.91452633810687478e-01 1.12629412077659159e-02 -2.91452633810687478e-01 -8.69572547925788822e-04 -4.05469837965664892e-04
3.18200000000000000e+10 -3.18697261902510368e-04 3.43696448626951015e-04 -7.99704004653908479e-02 -2.79538183424516695e-01 -7.99704004653908479e-02 -2.79538183424516695e-01 9.74811765641572401e-04 -4.53018481002172247e-04
3.18300000000000000e+10 2.13955455399390040e-04 -3.76193098334997515e-04 -1.62386788809762622e-01 -2.42416089454820405e-01 -1.62386788809762622e-01 -2.42416089454820405e-01 -1.14044791308809033e-03 4.07844069571853033e-04
3.18400000000000000e+10 -9.72000083186044849e-04 3.62461490075076452e-04 -2.30056643963039625e-01 -1.79169025965033563e-01 -2.30056643963039625e-01 -1.79169025965033563e-01 -8.48572912151484085e-05 4.85026492768190267e-05
3.18500000000000000e+10 -2.65504592152863972e-04 -6.53853430959711740e-04 -2.73351116387499760e-01 -9.93520586234480502e-02 -2.73351116387499760e-01 -9.93520586234480502e-02 -2.65942198647273296e-04 3.09953455133203280e-04
3.18600000000000000e+10 -6.11336758668104769e-04 -5.80777397649161848e-04 -2.90364990292159175e-01 -1.14065356093364014e-02 -2.90364990292159175e-01 -1.14065356093364014e-02 1.11076468863019907e-03 5.31368944394742366e-04
3.18700000000000000e+10 2.65853240866137722e-04 1.03642864131715459e-03 -2.79962882491188114e-01 7.98164600927013801e-02 -2.79962882491188114e-01 7.98164600927013801e-02 -4.16378670705855347e-04 -8.29959597359330607e-05
3.18800000000000000e+10 -3.48614283765031715e-05 -1.11802091901861929e-05 -2.40600638297075731e-01 1.62055521119401774e-01 -2.40600638297075731e-01 1.62055521119401774e-01 -7.10748158445723209e-04 1.33656408517552396e-04
3.18900000000000000e+10 -1.86076921682505218e-04 2.91925684499669789e-04 -1.78572347502832268e-01 2.29678711902651156e-01 -1.78572347502832268e-01 2.29678711902651156e-01 1.46191835341678286e-04 -1.94453531675444391e-03
3.19000000000000000e+10 -2.71103507908298559e-04 1.31502574859595090e-03 -9.87227920511189461e-02 2.72940040416145835e-01 -9.87227920511189461e-02 2.72940040416145835e-01 -8.51107662055708089e-05 -3.40809933717228016e-04
3.19100000000000000e+10 -7.68765468356987012e-04 4.24885325874551256e-04 -9.19146234364777957e-03 2.90463574435724847e-01 -9.19146234364777957e-03 2.90463574435724847e-01 5.34401312182701126e-04 -1.40261635415425299e-03
3.19200000000000000e+10 6.31761203810119821e-04 6.42554141004351574e-04 8.14578910453317151e-02 2.77883231809774311e-01 8.14578910453317151e-02 2.77883231809774311e-01 3.33229150398167814e-04 -4.95874554587715150e-04
3.19300000000000000e+10 -3.02570980669335287e-04 7.12916635285334175e-04 1.63128322248383389e-01 2.41019050139275742e-01 1.63128322248383389e-01 2.41019050139275742e-01 1.62688380081748083e-04 4.81241496157127030e-04
3.19400000000000000e+10 -5.07902680655282845e-05 -3.79422353926696517e-04 2.30004283452255737e-01 1.78131817324601982e-01 2.30004283452255737e-01 1.78131817324601982e-01 -7.57596566031789936e-04 9.08991169367126929e-04
3.19500000000000000e+10 5.69083342309995412e-04 3.59929110805788199e-04 2.73376153857736781e-01 9.85151005457113316e-02 2.73376153857736781e-01 9.85151005457113316e-02 -1.26551641387467824e-04 2.98150449003842959e-04
3.19600000000000000e+10 -3.57947143892493576e-04 -1.17398999326210100e-05 2.89373769576587947e-01 9.82715144081807400e-03 2.89373769576587947e-01 9.82715144081807400e-03 -3.44976436254419347e-04 -3.45207060557608343e-04
3.19700000000000000e+10 4.35624091096085023e-05 2.00469605002717081e-04 2.79614621337568259e-01 -7.97378125856295084e-02 2.79614621337568259e-01 -7.97378125856295084e-02 -3.63370788901492918e-04 -2.77126251308338332e-04
3.19800000000000000e+10 1.37824491024817657e-03 7.71266001698116960e-04 2.39954410098104615e-01 -1.62335768796337793e-01 2.39954410098104615e-01 -1.62335768796337793e-01 -5.28513237317068977e-04 -1.51511924097936872e-03
3.19900000000000000e+10 -6.23479992200845381e-04 -1.25950287549421382e-03 1.77088739591392375e-01 -2.30548943651665339e-01 1.77088739591392375e-01 -2.30548943651665339e-01 4.70629462499755016e-05 -5.51358175412280460e-04
3.20000000000000000e+10 -1.23430943790470284e-04 -4.63109499478157199e-04 9.88661252595154083e-02 -2.72032819075235133e-01 9.88661252595154083e-02 -2.72032819075235133e-01 1.61629034173488658e-04 4.23790536547197629e-04
3.20100000000000000e+10 1.57768274763328624e-04 -2.20470333082911087e-04 8.97036458420907498e-03 -2.90726712826498646e-01 8.97036458420907498e-03 -2.90726712826498646e-01 -2.39702036617828293e-04 -7.96234438428914423e-04
3.20200000000000000e+10 1.18160843452190631e-03 4.51914449647776407e-04 -8.07374718894741383e-02 -2.78733963015071917e-01 -8.07374718894741383e-02 -2.78733963015071917e-01 -1.82560080458063186e-04 -2.17035981050540526e-04
3.20300000000000000e+10 2.33566795111184378e-04 -5.21996765748318983e-05 -1.63908594260835538e-01 -2.40344832441019479e-01 -1.63908594260835538e-01 -2.40344832441019479e-01 7.15460065100540204e-04 -2.30603240702476499e-05
3.20400000000000000e+10 -1.23474879066744724e-03 7.13203039874943986e-04 -2.28845029967305463e-01 -1.78428417578462783e-01 -2.28845029967305463e-01 -1.78428417578462783e-01 -1.45233232338069286e-04 -3.58830673525222063e-04
3.20500000000000000e+10 1.06947239038746055e-03 1.02835125145100704e-04 -2.72684492844791349e-01 -9.89383013900277247e-02 -2.72684492844791349e-01 -9.89383013900277247e-02 5.49119458211658976e-04 1.27512114697368826e-04
3.20600000000000000e+10 -8.72533672835024122e-04 5.41367088844195085e-04 -2.90242146835151260e-01 -9.15566176306011580e-03 -2.90242146835151260e-01 -9.15566176306011580e-03 3.64714660618190392e-04 2.05410054254181844e-03
3.20700000000000000e+10 -2.39016859380931668e-04 6.53760330592913696e-04 -2.78252510802881492e-01 8.09912561020684207e-02 -2.78252510802881492e-01 8.09912561020684207e-02 1.71660886267287162e-03 3.82044013087232744e-04
3.20800000000000000e+10 -7.55445776712248543e-04 -9.55756411334482170e-05 -2.40106043716781098e-01 1.62651028180560209e-01 -2.40106043716781098e-01 1.62651028180560209e-01 -4.14092905544958157e-04 -1.00507307621626745e-03
3.20900000000000000e+10 -3.09098464712667925e-04 -2.08391084184519508e-04 -1.77021952416543060e-01 2.29258971099511488e-01 -1.77021952416543060e-01 2.29258971099511488e-01 -3.83205605943743601e-04 -5.15320707109092843e-04
3.21000000000000000e+10 3.10215397648576268e-05 7.75017244287869145e-04 -9.80450446894491623e-02 2.72400943186806910e-01 -9.80450446894491623e-02 2.72400943186806910e-01 -1.50464983022643187e-04 1.07217006402510250e-04
3.21100000000000000e+10 7.09590717678828544e-04 -1.33300934830452565e-03 -8.68792416837315708e-03 2.89151612987815720e-01 -8.68792416837315708e-03 2.89151612987815720e-01 -6.21761830968487784e-04 -2.98498186029092427e-04
3.21200000000000000e+10 6.25882315955856444e-04 -5.09364215730752920e-04 8.13039180403603012e-02 2.77591588564176983e-01 8.13039180403603012e-02 2.77591588564176983e-01 2.11254053428718176e-04 7.66694870151206679e-04
3.21300000000000000e+10 -7.23341253208365013e-05 7.63024243507088250e-04 1.63551742684384077e-01 2.40202328496750883e-01 1.63551742684384077e-01 2.40202328496750883e-01 -1.95840931797485683e-04 9.62091046928896521e-05
3.21400000000000000e+10 -2.01636290094247905e-05 -7.43124986875115762e-04 2.29451867305678486e-01 1.78505919194246576e-01 2.29451867305678486e-01 1.78505919194246576e-01 -5.02227339060297797e-04 8.11779283777537000e-05
3.21500000000000000e+10 1.74260653280003549e-03 -1.10818037040159986e-03 2.72048382820218870e-01 9.74909218157422042e-02 2.72048382820218870e-01 9.74909218157422042e-02 5.07473738775347360e-04 -1.39821699616816215e-03
3.21600000000000000e+10 1.81126735652473874e-04 1.72115738757114495e-03 2.89121889325196502e-01 8.17309342909041531e-03 2.89121889325196502e-01 8.17309342909041531e-03 -1.32337778048935857e-04 -6.64551045381673775e-04
3.21700000000000000e+10 6.50817422147547428e-04 3.90838785908133237e-04 2.78678436199406410e-01 -8.11939614238250118e-02 2.78678436199406410e-01 -8.11939614238250118e-02 -9.39310742290565986e-04 -5.99286376007907950e-04
3.21800000000000000e+10 1.66441471669277492e-03 -3.09583741781060831e-04 2.39098396708462141e-01 -1.63345937402289226e-01 2.39098396708462141e-01 -1.63345937402289226e-01 -5.83448467850074086e-04 9.43339896007950739e-04
3.21900000000000000e+10 1.01699575122384477e-03 8.71850078190809400e-05 1.77027214749856332e-01 -2.29630234913417774e-01 1.77027214749856332e-01 -2.29630234913417774e-01 -3.07144618096105682e-04 -7.89725761417906636e-05
3.22000000000000000e+10 1.71097051707330672e-03 6.49989727882983718e-04 9.68508229255840430e-02 -2.71785192293271638e-01 9.68508229255840430e-02 -2.71785192293271638e-01 6.46411299073341669e-04 2.06194884191763221e-04
3.22100000000000000e+10 -1.95339118145507125e-04 1.28454244909956359e-03 7.28283653356591714e-03 -2.89163069977081244e-01 7.28283653356591714e-03 -2.89163069977081244e-01 7.57066077328098601e-04 -1.61774392482566710e-04
3.22200000000000000e+10 4.78308990465355663e-04 2.93164418846547994e-04 -7.98965032433134048e-02 -2.77539721502906844e-01 -7.98965032433134048e-02 -2.77539721502906844e-01 1.17650938675630846e-03 1.08202954596694437e-03
3.22300000000000000e+10 3.98829886362784560e-04 -6.35467651606847817e-04 -1.62771383774612699e-01 -2.37877992817981498e-01 -1.62771383774612699e-01 -2.37877992817981498e-01 1.02591200931786020e-03 -6.14328016476164539e-04
3.22400000000000000e+10 4.14303387476734652e-04 5.34450151701511820e-04 -2.28712094938287175e-01 -1.75874877980848915e-01 -2.28712094938287175e-01 -1.75874877980848915e-01 -6.43875045805775321e-04 5.52950674920536312e-04
3.22500000000000000e+10 -2.08042042412416377e-04 -3.55571744375938548e-04 -2.72613783450677161e-01 -9.44107828244970804e-02 -2.72613783450677161e-01 -9.44107828244970804e-02 5.37209131362979169e-04 -2.11688130604243725e-04
3.22600000000000000e+10 -6.33774069804502165e-04 -1.01751438300347612e-03 -2.89202220219646977e-01 -7.64986444671638625e-03 -2.89202220219646977e-01 -7.64986444671638625e-03 7.07937885810295511e-04 6.90602518656528871e-04
3.22700000000000000e+10 1.18194621968368998e-03 2.06390198802885837e-04 -2.77276730262836668e-01 8.09199113130193715e-02 -2.77276730262836668e-01 8.09199113130193715e-02 -2.60901350219313553e-05 4.74723647811588635e-04
3.22800000000000000e+10 4.36303841901233814e-04 -3.02896717186532853e-04 -2.37781558027155948e-01 1.63849250698804155e-01 -2.37781558027155948e-01 1.63849250698804155e-01 7.05083060883380489e-04 2.16980687384497900e-04
3.22900000000000000e+10 6.78498771366708173e-04 1.09953752245798512e-03 -1.76489813629666981e-01 2.29501456762194911e-01 -1.76489813629666981e-01 2.29501456762194911e-01 -8.83286676369666275e-04 -7.71211118671492717e-04
3.23000000000000000e+10 4.44467387326136969e-04 9.23699657244664556e-04 -9.48203166949425080e-02 2.72718442149937679e-01 -9.48203166949425080e-02 2.72718442149937679e-01 3.11346652258766580e-04 -1.91179274241761739e-04
3.23100000000000000e+10 -9.59836521404881121e-04 3.75202635196282444e-04 -7.90259676131896058e-03 2.88920904525544753e-01 -7.90259676131896058e-03 2.88920904525544753e-01 1.12558118294126816e-04 1.76495371074775626e-04
3.23200000000000000e+10 3.12711376130250557e-04 -5.35691552389528682e-04 8.24222224176525131e-02 2.76985010016716382e-01 8.24222224176525131e-02 2.76985010016716382e-01 8.82550649569746365e-04 -3.33351692856892316e-04
3.23300000000000000e+10 1.37680769285153560e-04 9.36021329962640749e-04 1.62866912155977150e-01 2.37540933809520710e-01 1.62866912155977150e-01 2.37540933809520710e-01 5.07181617029974527e-04 1.63844163421289295e-03
3.23400000000000000e+10 -1.47303062982571931e-03 1.20647827936467322e-04 2.28189392870583402e-01 1.76020454586555464e-01 2.28189392870583402e-01 1.76020454586555464e-01 -1.14777837441661199e-03 -3.82149429969000593e-04
3.23500000000000000e+10 -1.07938300768090772e-03 -2.60623692240712582e-05 2.73892936271755261e-01 9.68563480191448611e-02 2.73892936271755261e-01 9.68563480191448611e-02 1.37940563923382950e-04 -5.33929724814454160e-04
3.23600000000000000e+10 -1.21595334233058822e-03 -3.47186048745785274e-04 2.89007485744416648e-01 6.95007819788687371e-03 2.89007485744416648e-01 6.95007819788687371e-03 -1.11388687956080380e-04 -6.31311524587104266e-05
3.23700000000000000e+10 8.92278798033663007e-05 9.69977994709125195e-04 2.77086753047732615e-01 -8.20508815346277093e-02 2.77086753047732615e-01 -8.20508815346277093e-02 -6.06797826415238824e-04 -3.85496198062862210e-04
3.23800000000000000e+10 -3.61980989963364526e-05 -2.61446694705801054e-04 2.36473879333581549e-01 -1.63348201885995886e-01 2.36473879333581549e-01 -1.63348201885995886e-01 -8.48260059121783979e-05 5.59148569369143935e-04
3.23900000000000000e+10 3.16453970502521894e-04 -9.71718652978116344e-04 1.74779410521696682e-01 -2.29854067377807003e-01 1.74779410521696682e-01 -2.29854067377807003e-01 -9.77328666582196956e-05 -3.61130334064547706e-04
3.24000000000000000e+10 -1.07240281829059720e-04 2.29147783144722865e-04 9.49964284394838737e-02 -2.72112692615213481e-01 9.49964284394838737e-02 -2.72112692615213481e-01 -3.36452057417299644e-04 -1.15765877009588875e-03
3.24100000000000000e+10 -1.06072896756395497e-04 -6.03964664608153226e-05 6.39359095337851263e-03 -2.88492842242586367e-01 6.39359095337851263e-03 -2.88492842242586367e-01 -2.41110213791124399e-04 1.06449011898180815e-04
3.24200000000000000e+10 -3.13639226409811686e-04 -1.73833394470932943e-04 -8.19858224115123518e-02 -2.76228556545420167e-01 -8.19858224115123518e-02 -2.76228556545420167e-01 4.44884986029500879e-04 -5.34027694940181818e-05
3.24300000000000000e+10 -4.89051163499513520e-04 -3.25279932681242338e-04 -1.63199026685060061e-01 -2.36602451662912411e-01 -1.63199026685060061e-01 -2.36602451662912411e-01 6.74995664830023998e-04 8.47723956204394244e-05
3.24400000000000000e+10 6.44110408553200396e-05 8.41140170856616927e-04 -2.28492445267610589e-01 -1.74593687531973074e-01 -2.28492445267610589e-01 -1.74593687531973074e-01 -8.19474898100867920e-04 -2.60804879035749686e-04
3.24500000000000000e+10 -1.06844418184874200e-03 -9.95893529565750030e-05 -2.71695933910115539e-01 -9.62460708573437962e-02 -2.71695933910115539e-01 -9.62460708573437962e-02 6.14619233649515160e-04 -6.21454630730766244e-04
3.24600000000000000e+10 9.91677751799331826e-04 1.70862273497168651e-03 -2.87354859105184601e-01 -6.76100016860972739e-03 -2.87354859105184601e-01 -6.76100016860972739e-03 -4.75754390890860857e-04 8.80929110804369174e-04
3.24700000000000000e+10 -9.20197727025700804e-04 -1.16369077169621316e-04 -2.75105674290762769e-01 8.33397292137047635e-02 -2.75105674290762769e-01 8.33397292137047635e-02 -8.38700501330753796e-05 -1.06677173306242914e-04
3.24800000000000000e+10 3.64561078303031493e-04 1.04416668176298376e-03 -2.36276107300976201e-01 1.64166440702316646e-01 -2.36276107300976201e-01 1.64166440702316646e-01 -3.21363599539932368e-04 -1.84401043137921239e-04
3.24900000000000000e+10 -1.35265079016305863e-03 -6.37592751462669628e-04 -1.75301839095598821e-01 2.28387779837899429e-01 -1.75301839095598821e-01 2.28387779837899429e-01 -1.94313442690248087e-04 -1.57449348328449548e-03
3.25000000000000000e+10 -7.19357817274665157e-04 4.20235981105303367e-04 -9.49389664564673913e-02 2.71317752961544145e-01 -9.49389664564673913e-02 2.71317752961544145e-01 2.06633291765694733e-04 -1.06927104387074439e-03
3.25100000000000000e+10 3.97946911263019891e-04 8.72700553796088675e-05 -7.33482000287796233e-03 2.86936421828503874e-01 -7.33482000287796233e-03 2.86936421828503874e-01 -1.97329757282539811e-04 -1.52089843899323787e-05
3.25200000000000000e+10 8.73608977845202598e-05 -1.13890067471218151e-03 8.42294986973681492e-02 2.74526546645785741e-01 8.42294986973681492e-02 2.74526546645785741e-01 -2.43836341895005946e-04 2.03704089102455476e-04
3.25300000000000000e+10 -1.57712947098817232e-03 -7.34527056029204723e-04 1.62870077197259128e-01 2.35638152289253222e-01 1.62870077197259128e-01 2.35638152289253222e-01 9.70952152140752331e-04 -7.53036522206465141e-04
3.25400000000000000e+10 -9.89973224073183080e-04 1.19201471945767478e-03 2.29052843332165107e-01 1.73733103470537414e-01 2.29052843332165107e-01 1.73733103470537414e-01 -3.24962277425878368e-04 -4.86896949922812348e-04
3.25500000000000000e+10 -6.48574963317234319e-04 -2.71661706163770552e-04 2.70667857206894902e-01 9.43131452575842882e-02 2.70667857206894902e-01 9.43131452575842882e-02 6.02258960283458050e-04 -2.55800367481608874e-04
3.25600000000000000e+10 -8.25572930696174645e-04 1.29819136552044526e-03 2.88567694155908883e-01 4.24233315046906260e-03 2.88567694155908883e-01 4.24233315046906260e-03 -1.06131566235118904e-03 -2.88670965578866361e-04
3.25700000000000000e+10 3.51499327007819982e-04 -1.02474379508151625e-04 2.75168390944477648e-01 -8.18579889896557666e-02 2.75168390944477648e-01 -8.18579889896557666e-02 -3.94228426902706321e-04 5.22294839793437885e-04
3.25800000000000000e+10 -9.75590341874068147e-04 7.08418448592814960e-04 2.36486819048715519e-01 -1.64207644054440688e-01 2.36486819048715519e-01 -1.64207644054440688e-01 2.61488176624309519e-05 -5.48628062979423874e-04
3.25900000000000000e+10 -7.56131790258510812e-04 -1.55224154659880256e-04 1.73978282072591389e-01 -2.29238653900909195e-01 1.73978282072591389e-01 -2.29238653900909195e-01 -6.50500968357474972e-04 8.61782371081540560e-04
3.26000000000000000e+10 1.12697195984606862e-04 -6.40635686465881502e-05 9.32513957008326427e-02 -2.71398974088274347e-01 9.32513957008326427e-02 -2.71398974088274347e-01 1.09668480117133859e-03 1.43488700508375582e-04
3.26100000000000000e+10 -5.79399601413623086e-04 4.68424326023512874e-04 7.06775417562822104e-03 -2.86503074119472179e-01 7.06775417562822104e-03 -2.86503074119472179e-01 -1.16211491372690776e-04 -7.17319994042416530e-04
3.26200000000000000e+10 -4.53006282698990837e-04 -1.21776055285377212e-03 -8.44490470149938666e-02 -2.74122708474945131e-01 -8.44490470149938666e-02 -2.74122708474945131e-01 2.96538149008536683e-04 -6.37975168970207228e-04
3.26300000000000000e+10 2.32274345690498964e-04 2.01383863025822885e-03 -1.63618888171256527e-01 -2.34915254184198508e-01 -1.63618888171256527e-01 -2.34915254184198508e-01 1.61451152498821605e-04 1.58924950631069697e-04
3.26400000000000000e+10 -1.01965751522288780e-04 -7.36422465839461221e-04 -2.30186989734174896e-01 -1.71688618489100192e-01 -2.30186989734174896e-01 -1.71688618489100192e-01 -1.97070815712488775e-04 -3.21243778922077473e-04
3.26500000000000000e+10 5.25251780017328414e-04 -9.92260642242229467e-04 -2.69813874981425228e-01 -9.31747584188383771e-02 -2.69813874981425228e-01 -9.31747584188383771e-02 5.52239182567366765e-04 5.38281540626152832e-04
3.26600000000000000e+10 3.88654459711113736e-04 -1.29336759354105118e-04 -2.86711529086779549e-01 -5.73783145237914335e-03 -2.86711529086779549e-01 -5.73783145237914335e-03 -3.05107770697930975e-04 2.75673700991601234e-04
3.26700000000000000e+10 -2.04329159360276940e-03 -8.50895332475424203e-04 -2.73563904352923715e-01 8.46953186472604869e-02 -2.73563904352923715e-01 8.46953186472604869e-02 4.30285291273066028e-04 3.77586024915393275e-04
3.26800000000000000e+10 1.76911367976576673e-04 1.16027764274168944e-03 -2.35104329436331111e-01 1.63610979071117407e-01 -2.35104329436331111e-01 1.63610979071117407e-01 5.59567721408648602e-04 5.14410552944388820e-04
3.26900000000000000e+10 1.98189228491688253e-04 1.94039652451178063e-04 -1.73004499130432143e-01 2.28668030169177472e-01 -1.73004499130432143e-01 2.28668030169177472e-01 -2.74436603234930892e-04 -3.18089528156555840e-04
3.27000000000000000e+10 -4.05151300696118610e-05 3.73336794139060221e-04 -9.34705180310181488e-02 2.70535615662598317e-01 -9.34705180310181488e-02 2.70535615662598317e-01 -1.37024072812581030e-03 -3.01369019141480563e-04
3.27100000000000000e+10 1.20515218724168789e-04 4.45187725553780480e-06 -5.40047926797579229e-03 2.86191318096991831e-01 -5.40047926797579229e-03 2.86191318096991831e-01 6.69511278924237894e-04 9.59898506381982072e-04
3.27200000000000000e+10 1.57689105934877933e-03 7.52341084181086430e-05 8.20102032820655413e-02 2.74863191896125736e-01 8.20102032820655413e-02 2.74863191896125736e-01 7.24707003874821686e-04 -1.63515451012045157e-04
3.27300000000000000e+10 -3.64914370411805378e-04 -8.35988943426813308e-04 1.63671953541422416e-01 2.35134431912260994e-01 1.63671953541422416e-01 2.35134431912260994e-01 -5.65323643351231401e-04 -3.10300232366770906e-04
3.27400000000000000e+10 1.53529760596847996e-04 -8.46323559855863662e-04 2.28944033388312984e-01 1.73932368155047479e-01 2.28944033388312984e-01 1.73932368155047479e-01 1.77352745662837032e-03 3.35433410675947783e-04
3.27500000000000000e+10 -4.25388338400405205e-04 -4.36134018349562723e-04 2.69948855423693568e-01 9.32451518824684161e-02 2.69948855423693568e-01 9.32451518824684161e-02 -1.35015066588754394e-03 9.48991870640819362e-04
3.27600000000000000e+10 -6.04440505175840321e-04 3.72411349480086264e-04 2.86156665906583840e-01 5.27163687261099356e-03 2.86156665906583840e-01 5.27163687261099356e-03 -1.58489573166080379e-03 -5.02892956996703965e-05
3.27700000000000000e+10 -7.94643021766352109e-04 1.48868617000974296e-03 2.73352009393683704e-01 -8.42125501969531176e-02 2.73352009393683704e-01 -8.42125501969531176e-02 -8.01244887253443568e-04 8.08525589342824747e-05
3.27800000000000000e+10 7.21345630595571392e-04 7.11547209990327518e-04 2.34002237959629433e-01 -1.63461554626976951e-01 2.34002237959629433e-01 -1.63461554626976951e-01 -1.72831259265171348e-06 -5.30848460513260118e-04
3.27900000000000000e+10 -4.46345163853329298e-04 8.20761668744750478e-04 1.71200319213111685e-01 -2.27414499549812937e-01 1.71200319213111685e-01 -2.27414499549812937e-01 1.00382584327173875e-03 -9.08956962350155554e-04
3.28000000000000000e+10 -2.60956438189096729e-04 -7.04605456643650051e-04 9.16385399231888498e-02 -2.71870828983957535e-01 9.16385399231888498e-02 -2.71870828983957535e-01 -1.80959576388563194e-04 1.32331295959568470e-03
3.28100000000000000e+10 2.50355930089607502e-04 -1.49778589137334310e-04 5.41373037888389849e-03 -2.84812318283216348e-01 5.41373037888389849e-03 -2.84812318283216348e-01 9.13494688522651917e-04 -3.40097416148459422e-04
3.28200000000000000e+10 6.68448856580309051e-04 5.61505098290350588e-04 -8.37102181111296084e-02 -2.73437876673209679e-01 -8.37102181111296084e-02 -2.73437876673209679e-01 -4.57410577858333842e-05 -1.55419822163403666e-04
3.28300000000000000e+10 -5.43124752468511734e-04 5.84185223129012098e-04 -1.63164212967660399e-01 -2.33813534317871830e-01 -1.63164212967660399e-01 -2.33813534317871830e-01 -1.46393746873035727e-04 -1.85525650732599855e-04
3.28400000000000000e+10 5.94195128309162393e-04 7.39279800343050779e-05 -2.27843722924301800e-01 -1.71813089491810900e-01 -2.27843722924301800e-01 -1.71813089491810900e-01 -9.37572609073985489e-04 9.76969363277963541e-04
3.28500000000000000e+10 3.43429782952245160e-04 -2.48537033996561814e-04 -2.70765449184327711e-01 -9.27076223740452843e-02 -2.70765449184327711e-01 -9.27076223740452843e-02 -9.93019022681780432e-04 -1.10551830583960797e-03
3.28600000000000000e+10 -6.02365388335661259e-04 1.45280824460553693e-04 -2.85392637782806324e-01 -3.72353673789139940e-03 -2.85392637782806324e-01 -3.72353673789139940e-03 1.08327793346977555e-03 9.50728863821566437e-04
3.28700000000000000e+10 2.82595750201761946e-04 -1.69259628893129749e-03 -2.72289879613394792e-01 8.46770961484698687e-02 -2.72289879613394792e-01 8.46770961484698687e-02 -1.34569394698704701e-04 1.22613242145048953e-03
3.28800000000000000e+10 -2.24913629290517082e-04 4.35221559318777070e-04 -2.34125393908925616e-01 1.64989307505803484e-01 -2.34125393908925616e-01 1.64989307505803484e-01 -7.53675045378073352e-04 3.31551852065813005e-04
3.28900000000000000e+10 -3.24988693872241307e-04 -4.32381030455072674e-04 -1.71217958960068001e-01 2.28876638622078105e-01 -1.71217958960068001e-01 2.28876638622078105e-01 -1.54037924741147903e-03 7.04611609804866061e-05
3.29000000000000000e+10 -6.19329355928788781e-04 2.99964299141154247e-05 -9.28289013736539464e-02 2.69319185177400222e-01 -9.28289013736539464e-02 2.69319185177400222e-01 9.75726115728212931e-04 3.73296007682838047e-04
3.29100000000000000e+10 -1.92537458597445747e-04 1.03975420662672934e-03 -3.18383320221149327e-03 2.85130765486588167e-01 -3.18383320221149327e-03 2.85130765486588167e-01 1.12403164134436390e-04 4.05652667344058538e-04
3.29200000000000000e+10 -7.55405441415768963e-04 -1.02870580264686719e-05 8.49984626397265464e-02 2.72281541754686884e-01 8.49984626397265464e-02 2.72281541754686884e-01 -1.68372731676494900e-03 -1.89471099270077680e-03
3.29300000000000000e+10 3.23606621671432694e-04 -4.55550401478908970e-04 1.64595287281578712e-01 2.33244810518117157e-01 1.64595287281578712e-01 2.33244810518117157e-01 8.28193697929918466e-04 1.93398048891556609e-04
3.29400000000000000e+10 9.67256114366515278e-04 1.45182392058613324e-04 2.27358648526138574e-01 1.70262754664197102e-01 2.27358648526138574e-01 1.70262754664197102e-01 -9.11769410863249989e-04 -1.60885265086537887e-04
3.29500000000000000e+10 -1.12252873640794441e-03 2.12842800599516836e-04 2.69594709387570131e-01 9.30931156498166490e-02 2.69594709387570131e-01 9.30931156498166490e-02 -4.17966652301546737e-04 -3.16567922080499865e-04
3.29600000000000000e+10 2.69600482888659947e-05 -6.18318013521794766e-04 2.85715083776312662e-01 3.24745724256560652e-03 2.85715083776312662e-01 3.24745724256560652e-03 -2.66840104241760907e-04 -1.71041910285261913e-04
3.29700000000000000e+10 -5.07452724271322271e-05 1.30236659082220838e-04 2.70986726440503811e-01 -8.49412344844767270e-02 2.70986726440503811e-01 -8.49412344844767270e-02 6.88150652207639678e-04 7.11176061114477949e-04
3.29800000000000000e+10 5.61839768164478721e-05 -1.13946421311722783e-03 2.32583020656810829e-01 -1.65166514297872241e-01 2.32583020656810829e-01 -1.65166514297872241e-01 6.61202521044698438e-04 3.50765504735329494e-04
3.29900000000000000e+10 -4.07131298485781531e-05 5.61161289298457494e-04 1.70941023359446359e-01 -2.29692185781902508e-01 1.70941023359446359e-01 -2.29692185781902508e-01 5.88252641592480782e-05 1.89269883402341191e-03
3.30000000000000000e+10 1.02830936799784014e-03 -2.20980711676769018e-04 9.06441694616658827e-02 -2.69517649505723489e-01 9.06441694616658827e-02 -2.69517649505723489e-01 4.79812608629445704e-04 -1.25186665887383952e-03
3.30100000000000000e+10 -6.87926239329506245e-04 -1.24240408020897305e-03 3.51343210687269378e-03 -2.85209706999792034e-01 3.51343210687269378e-03 -2.85209706999792034e-01 -3.95141382941226909e-04 -6.04954783471380866e-04
3.30200000000000000e+10 -5.78403386814625291e-05 1.64853099392604265e-03 -8.50894399519173117e-02 -2.72238437797772570e-01 -8.50894399519173117e-02 -2.72238437797772570e-01 4.65663886909881315e-04 -5.63260024497854372e-04
3.30300000000000000e+10 8.85325147533232225e-04 -1.47896167759066114e-04 -1.63716045377337777e-01 -2.31836987353643414e-01 -1.63716045377337777e-01 -2.31836987353643414e-01 9.44799906243174868e-04 2.17331764093983562e-03
3.30400000000000000e+10 -4.49223612055120729e-04 2.67428692344048305e-04 -2.28324479813669851e-01 -1.69734322440731528e-01 -2.28324479813669851e-01 -1.69734322440731528e-01 -1.13467348427155113e-03 -2.42687395537269661e-04
3.30500000000000000e+10 -2.49284844840731072e-04 -7.09876464874079028e-04 -2.70668434818962911e-01 -9.06967600648929395e-02 -2.70668434818962911e-01 -9.06967600648929395e-02 5.57828399400195032e-05 -3.47690853423270638e-04
3.30600000000000000e+10 1.30823908101114072e-04 1.07911356984314991e-03 -2.84738139288600645e-01 -2.18281071643414669e-03 -2.84738139288600645e-01 -2.18281071643414669e-03 3.49234507897552057e-04 -4.86025511894749553e-05
3.30700000000000000e+10 1.04644932097676979e-04 4.73180757142946287e-04 -2.71781272623850378e-01 8.42284762760434624e-02 -2.71781272623850378e-01 8.42284762760434624e-02 -1.36554146656181507e-03 2.28464606594541014e-03
3.30800000000000000e+10 -8.98708547383995263e-06 1.26341559507301532e-03 -2.31530404913655119e-01 1.64379088596611433e-01 -2.31530404913655119e-01 1.64379088596611433e-01 -4.91827439764129103e-04 -3.97328555833588969e-04
3.30900000000000000e+10 7.29855991387726318e-04 -1.79349800567219132e-04 -1.70561590432890459e-01 2.26456367523174634e-01 -1.70561590432890459e-01 2.26456367523174634e-01 3.80190494466680576e-04 -5.38269399574559603e-04
3.31000000000000000e+10 2.36324282213294640e-04 -5.11903054415569023e-04 -9.14723487307693012e-02 2.69350483600761748e-01 -9.14723487307693012e-02 2.69350483600761748e-01 5.55301655015995994e-04 5.07976041713391899e-04
3.31100000000000000e+10 8.59862692288906731e-04 -6.83817476726383388e-04 -1.30955675913920432e-03 2.83161335443322615e-01 -1.30955675913920432e-03 2.83161335443322615e-01 -1.03835679533555427e-04 9.82298574206338232e-04
3.31200000000000000e+10 8.30718527898504733e-05 5.05526012184783846e-04 8.41181827256499010e-02 2.71904581832252745e-01 8.41181827256499010e-02 2.71904581832252745e-01 -2.49599397918024628e-04 -4.28171341792103169e-04
3.31300000000000000e+10 3.12984898798059020e-04 3.88087077688820613e-04 1.65028842414846111e-01 2.29926638927411331e-01 1.65028842414846111e-01 2.29926638927411331e-01 -2.15676789356909196e-03 -1.01500298191709265e-03
3.31400000000000000e+10 -1.41714315767358691e-03 -3.66951208442343514e-06 2.29955016486839664e-01 1.70110040481847663e-01 2.29955016486839664e-01 1.70110040481847663e-01 7.25449753168102294e-04 -3.13765746408943742e-04
3.31500000000000000e+10 1.19727597626332794e-04 1.71090893118798688e-04 2.69555126259776290e-01 9.03859686261224565e-02 2.69555126259776290e-01 9.03859686261224565e-02 -6.05192501095403726e-04 6.74295922204311933e-04
3.31600000000000000e+10 3.32870664914301491e-04 1.03185214048158989e-03 2.82876320071138110e-01 2.41353046591411859e-03 2.82876320071138110e-01 2.41353046591411859e-03 -7.55560079312662838e-04 -2.39242227031700837e-04
3.31700000000000000e+10 5.42815449460348699e-04 -7.21882712590576686e-04 2.70455648100094648e-01 -8.46841308219370426e-02 2.70455648100094648e-01 -8.46841308219370426e-02 1.13830442532224393e-03 1.48089468719130872e-05
3.31800000000000000e+10 -9.65248687931951461e-04 -9.48178238726381153e-04 2.30771645460731062e-01 -1.65572820138787852e-01 2.30771645460731062e-01 -1.65572820138787852e-01 -9.05252645762335910e-04 3.75513695468522731e-04
3.31900000000000000e+10 8.91297720261474149e-04 1.47762920740903835e-03 1.69134431228148335e-01 -2.28846213815294575e-01 1.69134431228148335e-01 -2.28846213815294575e-01 1.00652503495326433e-03 -3.33490840211732309e-04
3.32000000000000000e+10 -1.18281501843295637e-03 -1.86914110460835079e-04 9.00049739069137406e-02 -2.69150966063282204e-01 9.00049739069137406e-02 -2.69150966063282204e-01 -2.78451659618187363e-04 2.26001664152385438e-05
3.32100000000000000e+10 -3.64494312578153828e-04 -5.26215113956853234e-05 3.04557301046064514e-03 -2.84457808715392391e-01 3.04557301046064514e-03 -2.84457808715392391e-01 -4.51820163327712866e-04 1.08811655090776112e-04
3.32200000000000000e+10 2.78242944847076226e-04 -1.21283740925328689e-03 -8.49208779253360635e-02 -2.69059898178794110e-01 -8.49208779253360635e-02 -2.69059898178794110e-01 9.16565551269310193e-04 -7.12215002719942527e-04
3.32300000000000000e+10 -1.43853671408232238e-03 -4.57047326635115199e-04 -1.65269684857361876e-01 -2.30677203073293285e-01 -1.65269684857361876e-01 -2.30677203073293285e-01 -4.06043264153961808e-04 6.19917799974895782e-04
3.32400000000000000e+10 -1.35721976494739612e-04 -5.23148706921060290e-04 -2.27857986422874137e-01 -1.68399556869024608e-01 -2.27857986422874137e-01 -1.68399556869024608e-01 -1.82704345618730932e-04 1.23022429273344646e-03
3.32500000000000000e+10 7.39654519087281801e-04 -6.62292558062671142e-04 -2.68063048085129929e-01 -8.97839359934713421e-02 -2.68063048085129929e-01 -8.97839359934713421e-02 -7.52736927822316858e-04 2.92231774281270177e-04
3.32600000000000000e+10 9.92868852639026001e-05 -2.02616259129963607e-04 -2.82424535490586215e-01 -2.01823593306804053e-03 -2.82424535490586215e-01 -2.01823593306804053e-03 -1.28401286539864485e-03 -7.33824814588998034e-04
3.32700000000000000e+10 -1.19335626180671586e-03 5.30304368065433597e-04 -2.70973229396528903e-01 8.53637212703105691e-02 -2.70973229396528903e-01 8.53637212703105691e-02 2.74510615666171730e-05 -8.39440144509815572e-05
3.32800000000000000e+10 -1.15809128837012745e-03 2.68926768449606119e-05 -2.30977363536464558e-01 1.64769083279554973e-01 -2.30977363536464558e-01 1.64769083279554973e-01 4.36771222897610223e-04 1.24430794890714042e-03
3.32900000000000000e+10 -2.65133447387947948e-04 -4.33144985490358859e-04 -1.68482437440442584e-01 2.26924459385817456e-01 -1.68482437440442584e-01 2.26924459385817456e-01 7.35901707980720992e-04 1.74822439329376875e-04
3.33000000000000000e+10 -1.12082224261549394e-03 -2.29465110683762163e-04 -8.95228263662927598e-02 2.69117044481392009e-01 -8.95228263662927598e-02 2.69117044481392009e-01 6.57786317858766807e-04 2.55835035808136234e-04
3.33100000000000000e+10 -5.63727094394680093e-04 -4.95522707026847527e-04 -9.12749912508955467e-04 2.83152488911888489e-01 -9.12749912508955467e-04 2.83152488911888489e-01 -1.46785157935979457e-03 1.00325517792447939e-03
3.33200000000000000e+10 6.10152435433313628e-04 2.94410639369507433e-05 8.52717229167543334e-02 2.69493976865778972e-01 8.52717229167543334e-02 2.69493976865778972e-01 1.91412885356127566e-04 -5.46127373170123801e-04
3.33300000000000000e+10 9.01777921135304625e-04 3.16072087990630223e-04 1.65708873510372362e-01 2.29086535692293258e-01 1.65708873510372362e-01 2.29086535692293258e-01 -2.45833540361175391e-04 8.14999643639430227e-04
3.33400000000000000e+10 1.21941148133088929e-04 -9.36225231099444650e-04 2.27979907826816819e-01 1.67251717128765270e-01 2.27979907826816819e-01 1.67251717128765270e-01 -8.74035935654165260e-04 -1.48525029040928752e-04
3.33500000000000000e+10 1.09687714483747817e-03 7.98403254085352523e-04 2.67011962467946562e-01 8.95256195329147270e-02 2.67011962467946562e-01 8.95256195329147270e-02 -7.07081472660826713e-05 1.48781011649760350e-04
3.33600000000000000e+10 5.53276668585128781e-04 -4.69416097347306980e-04 2.82359953202790726e-01 1.75846745532624339e-03 2.82359953202790726e-01 1.75846745532624339e-03 1.31683596188807638e-04 1.93866580843491770e-04
3.33700000000000000e+10 -3.21722538910060437e-04 -3.89061143079871960e-04 2.69373707194871803e-01 -8.61451197691586040e-02 2.69373707194871803e-01 -8.61451197691586040e-02 4.43678342817412156e-05 5.38452329442989735e-04
3.33800000000000000e+10 6.74301413266774731e-04 -5.85296944618376129e-05 2.30965502112057214e-01 -1.65821290113647046e-01 2.30965502112057214e-01 -1.65821290113647046e-01 -9.37336448115946462e-04 -2.80304866179426841e-04
3.33900000000000000e+10 2.33812897902090832e-04 -3.28865028651515476e-04 1.68068120970610774e-01 -2.27600040466365394e-01 1.68068120970610774e-01 -2.27600040466365394e-01 -4.10913140893051025e-04 1.06889115088097935e-03
3.34000000000000000e+10 8.94901691149833142e-04 -2.70267056802468632e-04 8.60852021057950806e-02 -2.68337607851116877e-01 8.60852021057950806e-02 -2.68337607851116877e-01 8.19988055855852072e-04 4.25079501302231036e-04
3.34100000000000000e+10 -1.08853217025873885e-04 -7.09716949065467592e-04 1.01655773103380203e-03 -2.81895829191794511e-01 1.01655773103380203e-03 -2.81895829191794511e-01 -7.28776709269068733e-05 5.97766161442117605e-05
3.34200000000000000e+10 8.52191263843535426e-04 9.22147530487968121e-04 -8.64704242070764573e-02 -2.68961708632459329e-01 -8.64704242070764573e-02 -2.68961708632459329e-01 -9.68730713639474775e-04 2.16915283378147803e-03
3.34300000000000000e+10 -1.17543499415094098e-03 1.00310317628235415e-03 -1.65661092274027005e-01 -2.28742725732020091e-01 -1.65661092274027005e-01 -2.28742725732020091e-01 -3.18565123736026237e-04 4.58023162508224707e-04
3.34400000000000000e+10 -7.69130972489288781e-04 -4.71846286394922584e-04 -2.27536724076137564e-01 -1.66340721688384374e-01 -2.27536724076137564e-01 -1.66340721688384374e-01 -5.12362348269865026e-04 4.52420461713808227e-04
3.34500000000000000e+10 4.79435284906330292e-05 9.26652103465508002e-04 -2.68818576982307378e-01 -8.78294704982315322e-02 -2.68818576982307378e-01 -8.78294704982315322e-02 -1.15773530913170758e-04 -9.62038791531604496e-04
3.34600000000000000e+10 -2.84023572039496827e-04 2.30156273919746786e-05 -2.82311981607060336e-01 -1.63456057324476564e-03 -2.82311981607060336e-01 -1.63456057324476564e-03 1.94317678237788492e-05 3.03473732851209526e-05
3.34700000000000000e+10 6.06152098915908877e-04 -6.94883277108710870e-06 -2.69025860492927871e-01 8.53405116116574408e-02 -2.69025860492927871e-01 8.53405116116574408e-02 3.04786065727769180e-04 4.27777208779068002e-05
3.34800000000000000e+10 -3.59053286087746408e-05 6.09066024646523550e-04 -2.28434912474359625e-01 1.65535230936947692e-01 -2.28434912474359625e-01 1.65535230936947692e-01 5.52881468175017167e-04 -2.85826800913613680e-04
3.34900000000000000e+10 1.19334751605794267e-03 -2.09721081343467288e-04 -1.66598535227067163e-01 2.27576852338017332e-01 -1.66598535227067163e-01 2.27576852338017332e-01 4.39436924022346674e-04 4.77365134822880732e-05
3.35000000000000000e+10 -2.91959122963861588e-04 -2.13136733030614941e-04 -8.89277402257901278e-02 2.68070592229390614e-01 -8.89277402257901278e-02 2.68070592229390614e-01 -3.80655077820342367e-05 -8.33454008562532918e-04
3.35100000000000000e+10 3.66192023068216005e-04 -1.77643263516311513e-03 1.73450264709559734e-04 2.81681801616467553e-01 1.73450264709559734e-04 2.81681801616467553e-01 7.44809768051151789e-05 -1.37368642393847400e-03
3.35200000000000000e+10 1.23070724517509273e-04 5.34652286209716778e-04 8.58562347615108301e-02 2.67811050161087194e-01 8.58562347615108301e-02 2.67811050161087194e-01 1.27148930838795839e-03 -5.47083849920802973e-04
3.35300000000000000e+10 -6.70590913546776084e-04 -3.63653342234369935e-04 1.65214698599751630e-01 2.27700845734979729e-01 1.65214698599751630e-01 2.27700845734979729e-01 5.36103458759129440e-04 4.27278980111599530e-04
3.35400000000000000e+10 -3.14838825658927360e-04 -5.37344317771788304e-04 2.28169006504809202e-01 1.67609400799364511e-01 2.28169006504809202e-01 1.67609400799364511e-01 -1.39170821758529523e-03 -2.31292292768755983e-04
3.35500000000000000e+10 -1.98824067078344946e-04 1.23047364333765078e-04 2.68416577438351178e-01 8.71793210446142747e-02 2.68416577438351178e-01 8.71793210446142747e-02 -2.47743853420177287e-03 -1.10417072064100761e-03
3.35600000000000000e+10 -1.38066439591531484e-03 -1.47165304166288003e-03 2.82040166504657075e-01 1.29288512680158759e-03 2.82040166504657075e-01 1.29288512680158759e-03 -1.47218414257141677e-03 1.14232310119732417e-03
3.35700000000000000e+10 -5.48465036398606068e-04 4.08540491296426544e-05 2.68891702769687824e-01 -8.56851597694534839e-02 2.68891702769687824e-01 -8.56851597694534839e-02 -1.40151053565386557e-03 3.51966150509125993e-04
3.35800000000000000e+10 6.94472625643801755e-04 -4.36056181239557257e-04 2.28191109087858918e-01 -1.64037545002086366e-01 2.28191109087858918e-01 -1.64037545002086366e-01 -6.52418715603498591e-05 -7.96367820063397587e-04
3.35900000000000000e+10 -1.68414190196165782e-03 -2.96682547370430059e-04 1.66241537158784314e-01 -2.27513907373233182e-01 1.66241537158784314e-01 -2.27513907373233182e-01 -1.10357455934493968e-03 -3.82992653949180419e-04
3.36000000000000000e+10 -3.71447272559078507e-04 6.66873389758748154e-05 8.83224059595115324e-02 -2.67444172488904119e-01 8.83224059595115324e-02 -2.67444172488904119e-01 -9.06993185133046732e-04 -1.15917330661999447e-03
3.36100000000000000e+10 -5.57005251887040371e-04 -3.78904895791683509e-04 -9.42662606408785310e-04 -2.82632026185749063e-01 -9.42662606408785310e-04 -2.82632026185749063e-01 -1.22224807351307215e-03 5.90849890908640434e-04
3.36200000000000000e+10 -1.61086522475048234e-04 -5.99424044218527263e-04 -8.64658740325834202e-02 -2.67887836443721494e-01 -8.64658740325834202e-02 -2.67887836443721494e-01 -2.44472442000501981e-04 -3.91571361566851880e-04
3.36300000000000000e+10 -3.78774852622581278e-04 1.61806398570506069e-04 -1.65383172439242554e-01 -2.26854460477181691e-01 -1.65383172439242554e-01 -2.26854460477181691e-01 6.53767425706640488e-04 -5.06436928310439994e-04
3.36400000000000000e+10 -7.63254363200516748e-04 1.24267925590708437e-03 -2.26784119268855083e-01 -1.64040129220250547e-01 -2.26784119268855083e-01 -1.64040129220250547e-01 -8.91054020706195178e-04 -4.84793450404033912e-04
3.36500000000000000e+10 -5.25293966124075842e-04 1.74141838296428854e-04 -2.66877359674823789e-01 -8.74507005170220703e-02 -2.66877359674823789e-01 -8.74507005170220703e-02 3.28745845791975734e-05 -2.90455683011971481e-04
3.36600000000000000e+10 7.21462089441663276e-05 -8.78450360549066860e-04 -2.82370735186565636e-01 2.27655416592217999e-04 -2.82370735186565636e-01 2.27655416592217999e-04 3.54883408208831982e-04 1.52347208683761230e-03
3.36700000000000000e+10 8.20276655918030168e-04 5.78585610003138663e-04 -2.67623206919453183e-01 8.63820090310756517e-02 -2.67623206919453183e-01 8.63820090310756517e-02 7.13972218480138604e-04 3.50744095121817325e-04
3.36800000000000000e+10 -1.12147142628621853e-04 -6.66796754478238881e-04 -2.28554514583323737e-01 1.64680871007331031e-01 -2.28554514583323737e-01 1.64680871007331031e-01 -1.15196430534540297e-04 2.19743294828386178e-04
3.36900000000000000e+10 2.93374624240804718e-04 2.03960856579680530e-05 -1.64745872850445091e-01 2.27498105926386696e-01 -1.64745872850445091e-01 2.27498105926386696e-01 3.38156637532373105e-05 -2.70097145042045864e-05
3.37000000000000000e+10 -1.10973530033491919e-04 5.28818221466178856e-04 -8.58545126855253110e-02 2.67492180084850872e-01 -8.58545126855253110e-02 2.67492180084850872e-01 5.92255553938594837e-04 -6.05865462343984780e-05
3.37100000000000000e+10 -6.74474660368169646e-04 -1.03787607658077305e-03 -3.19912548134847566e-04 2.81186975091180513e-01 -3.19912548134847566e-04 2.81186975091180513e-01 3.72484826285402317e-04 -3.18897459800071965e-05
3.37200000000000000e+10 -1.06780468961500410e-03 -1.26407147745172688e-03 8.68339114345793861e-02 2.66231619184756851e-01 8.68339114345793861e-02 2.66231619184756851e-01 -3.51520112209612989e-04 8.30924648167039493e-04
3.37300000000000000e+10 -6.97001766283449715e-04 5.59964954313049734e-04 1.66609372504052111e-01 2.26198865143693167e-01 1.66609372504052111e-01 2.26198865143693167e-01 1.43513759846813026e-04 -6.80381104897282026e-04
3.37400000000000000e+10 -5.92752145941920867e-04 5.04817423491872716e-04 2.26331540535770620e-01 1.64401993472597596e-01 2.26331540535770620e-01 1.64401993472597596e-01 -7.02548957082266301e-04 -7.06233754151689271e-05
3.37500000000000000e+10 3.15850710084861197e-04 -1.28835727705910196e-03 2.66880374975100643e-01 8.62808014119702260e-02 2.66880374975100643e-01 8.62808014119702260e-02 -1.83832639214205748e-04 4.55288563187616695e-04
3.37600000000000000e+10 -1.29986072249551053e-04 -4.07705802903996449e-04 2.79736888858341526e-01 -3.89259107094401362e-04 2.79736888858341526e-01 -3.89259107094401362e-04 2.91212860685532776e-04 -7.38633076032019155e-04
3.37700000000000000e+10 3.83599383900175468e-04 -1.01656599806507534e-03 2.67282836412652713e-01 -8.66914320269226157e-02 2.67282836412652713e-01 -8.66914320269226157e-02 -6.33791817887290315e-04 -3.46086608982420596e-04
3.37800000000000000e+10 -3.71997461283074288e-04 6.72075090278213241e-04 2.27005767891701765e-01 -1.66133368893914890e-01 2.27005767891701765e-01 -1.66133368893914890e-01 3.32584402461537159e-04 1.05772964979171727e-03
3.37900000000000000e+10 -8.38379972649241006e-05 -3.90565264800689133e-04 1.64790203416690179e-01 -2.27614327227335239e-01 1.64790203416690179e-01 -2.27614327227335239e-01 -5.31456948849268716e-04 3.80400196019718066e-04
3.38000000000000000e+10 -5.37180879600499157e-04 -4.98411304185471010e-04 8.55179339456129672e-02 -2.67997722551865936e-01 8.55179339456129672e-02 -2.67997722551865936e-01 1.79138202364654295e-04 -2.21328817707072239e-04
3.38100000000000000e+10 -1.19765211353595733e-03 8.95950406778576167e-04 -1.91936779582402295e-03 -2.80365264439777551e-01 -1.91936779582402295e-03 -2.80365264439777551e-01 2.79222771445503050e-05 5.34523915537802002e-04
3.38200000000000000e+10 -3.63956738160766801e-04 -6.32530823367325915e-05 -9.00319158128871644e-02 -2.67811149488177525e-01 -9.00319158128871644e-02 -2.67811149488177525e-01 -4.43071407578817607e-04 -1.92271464047730488e-04
3.38300000000000000e+10 -1.82374438209439641e-04 -4.23709519564901659e-04 -1.65100841866781312e-01 -2.26712138115124473e-01 -1.65100841866781312e-01 -2.26712138115124473e-01 -2.16965122585085400e-04 1.21741041854258393e-04
3.38400000000000000e+10 1.24376615896831273e-04 1.11413475487978457e-04 -2.27626300739953907e-01 -1.64472664838161864e-01 -2.27626300739953907e-01 -1.64472664838161864e-01 1.79043972486600810e-04 1.14122999057746002e-03
3.38500000000000000e+10 -5.80862886857076013e-05 3.16652731995081468e-04 -2.67792772417747071e-01 -8.54320783475420314e-02 -2.67792772417747071e-01 -8.54320783475420314e-02 -5.80066122010461588e-04 -8.26835516355450308e-05
3.38600000000000000e+10 -4.07943793672230388e-04 1.05433697228073347e-03 -2.81462221231989995e-01 9.50102996009089961e-04 -2.81462221231989995e-01 9.50102996009089961e-04 2.28083390106303101e-04 1.32335934629210900e-03
3.38700000000000000e+10 -1.32337002107886179e-05 9.53764311253103001e-04 -2.66969988872111763e-01 8.72626192196499506e-02 -2.66969988872111763e-01 8.72626192196499506e-02 4.61034517586470459e-04 -7.62837163791851218e-04
3.38800000000000000e+10 -2.31407147724036226e-04 -3.42144043955199678e-04 -2.25391283493900807e-01 1.65906156722713083e-01 -2.25391283493900807e-01 1.65906156722713083e-01 -2.53930257663121555e-04 -1.91812252378555440e-03
3.38900000000000000e+10 1.01724338279625859e-03 4.60702863596528986e-04 -1.64233908209212548e-01 2.27594337564670957e-01 -1.64233908209212548e-01 2.27594337564670957e-01 4.68732163306444835e-04 8.74410459459679340e-04
3.39000000000000000e+10 9.49939393423639600e-04 -2.61575202062854298e-04 -8.53096231920195402e-02 2.66557515181065185e-01 -8.53096231920195402e-02 2.66557515181065185e-01 -5.99891162574437168e-04 -1.07770473635904836e-04
3.39100000000000000e+10 -5.32342738742916964e-06 6.15453926546461589e-04 1.24745390485252053e-03 2.79816770883582311e-01 1.24745390485252053e-03 2.79816770883582311e-01 -7.62361032080365302e-04 -7.26665806772766251e-04
3.39200000000000000e+10 7.48149344845517629e-04 -1.13174775583793196e-03 8.70139809075769488e-02 2.65902244314559444e-01 8.70139809075769488e-02 2.65902244314559444e-01 4.42929285918489447e-05 -3.71373906056511919e-04
3.39300000000000000e+10 5.30479209645823746e-04 -7.68813139055173110e-04 1.66250254587344604e-01 2.26834869296517749e-01 1.66250254587344604e-01 2.26834869296517749e-01 2.86760847571197633e-04 4.85895569182174126e-04
3.39400000000000000e+10 7.61006662709892766e-04 -8.29156893108289853e-04 2.26394857427086649e-01 1.62401385207523202e-01 2.26394857427086649e-01 1.62401385207523202e-01 -8.48796060546185981e-04 9.57131097567501558e-04
3.39500000000000000e+10 3.03430543394880077e-04 1.19777655333962001e-03 2.66653036919104913e-01 8.48141039409056191e-02 2.66653036919104913e-01 8.48141039409056191e-02 -5.60447937841494347e-05 5.96239384219411205e-04
3.39600000000000000e+10 -4.88005619644726765e-04 -5.02969323661513743e-04 2.79164054582303700e-01 -1.18479677735193337e-03 2.79164054582303700e-01 -1.18479677735193337e-03 6.79077831978785063e-04 -4.78138436308133200e-04
3.39700000000000000e+10 2.64729896511060436e-04 -1.80410638462931330e-04 2.66700877810653658e-01 -8.85556232937699250e-02 2.66700877810653658e-01 -8.85556232937699250e-02 -5.02877189534412243e-04 -3.72703097744188990e-04
3.39800000000000000e+10 1.79546192928451066e-04 -1.67085584198975034e-04 2.25810840435335419e-01 -1.66220875355190922e-01 2.25810840435335419e-01 -1.66220875355190922e-01 5.27014356730783049e-05 5.76647252700189506e-05
3.39900000000000000e+10 -6.20866561426898977e-04 5.10078126973876906e-04 1.61916552633390914e-01 -2.26587681861179807e-01 1.61916552633390914e-01 -2.26587681861179807e-01 3.41799101856121192e-04 -5.50401020747690083e-04
3.40000000000000000e+10 -2.80395531008068586e-04 8.05674360083776095e-04 8.41477989608279547e-02 -2.66341342233213041e-01 8.41477989608279547e-02 -2.66341342233213041e-01 2.17365960733106639e-04 -2.63114423974606273e-05
3.40100000000000000e+10 -5.02540347064365633e-04 -8.01337153687131545e-04 -1.16600074832584047e-03 -2.79329031978871156e-01 -1.16600074832584047e-03 -2.79329031978871156e-01 -5.46413863561243498e-04 4.22020467741882771e-04
3.40200000000000000e+10 -1.61323956820883287e-05 -5.15583214130412525e-04 -8.78840248550244590e-02 -2.65431865774795883e-01 -8.78840248550244590e-02 -2.65431865774795883e-01 5.62140537952262849e-04 -4.40912570412479792e-04
3.40300000000000000e+10 1.17170836014696264e-03 -1.28885933439009732e-04 -1.66562701219500953e-01 -2.25199853267631367e-01 -1.66562701219500953e-01 -2.25199853267631367e-01 -1.08982850926289784e-03 -4.25003228421982429e-05
3.40400000000000000e+10 3.02771934331477115e-04 -5.54462407231637116e-04 -2.27285507524226715e-01 -1.62536268621960328e-01 -2.27285507524226715e-01 -1.62536268621960328e-01 -4.11330848030802109e-04 -3.55461802741732465e-04
3.40500000000000000e+10 -6.33738114262376155e-04 4.35128602515679939e-04 -2.65599731956586482e-01 -8.43594670649269740e-02 -2.65599731956586482e-01 -8.43594670649269740e-02 7.32102073952046409e-04 7.87060188138203492e-04
3.40600000000000000e+10 7.73380989443853291e-04 1.50325268529922086e-03 -2.79045110730754609e-01 1.29119419309788670e-03 -2.79045110730754609e-01 1.29119419309788670e-03 1.27107935769959395e-03 -4.35880780520892419e-04
3.40700000000000000e+10 -2.13605440114247224e-04 4.54798588593446082e-04 -2.63819283367233148e-01 8.88185197385594899e-02 -2.63819283367233148e-01 8.88185197385594899e-02 -9.40906853900274525e-04 5.45900310590534074e-04
3.40800000000000000e+10 -2.94331937661930412e-04 8.38915085128681313e-04 -2.24783965229456650e-01 1.66041361616477895e-01 -2.24783965229456650e-01 1.66041361616477895e-01 -1.53513329373109841e-03 -7.48193752210715127e-04
3.40900000000000000e+10 1.25273656936822873e-03 1.03648209379875503e-03 -1.61932067487442904e-01 2.27315924603191527e-01 -1.61932067487442904e-01 2.27315924603191527e-01 1.31339961863868269e-04 8.73287899617438340e-05
3.41000000000000000e+10 1.47017799626191344e-04 -7.12843459425941631e-04 -8.37576570240580465e-02 2.66513301799474578e-01 -8.37576570240580465e-02 2.66513301799474578e-01 1.11122707511523413e-03 3.65154218986665953e-04
3.41100000000000000e+10 1.03604781720424460e-03 1.90148336468794270e-04 2.17807715438352945e-03 2.78292700072283183e-01 2.17807715438352945e-03 2.78292700072283183e-01 5.91505826103369965e-05 9.56980491769845510e-04
3.41200000000000000e+10 -1.17422398521871368e-05 -3.72674319480778289e-04 8.88521147864651806e-02 2.64841081259571398e-01 8.88521147864651806e-02 2.64841081259571398e-01 -5.13055477168936471e-05 8.82673944737524157e-04
3.41300000000000000e+10 2.13106862290751649e-04 -3.42178635346405968e-04 1.66520341270469080e-01 2.23945513447666694e-01 1.66520341270469080e-01 2.23945513447666694e-01 6.73642140006066215e-04 4.50682853401100539e-04
3.41400000000000000e+10 2.68007150613486103e-04 7.70730746543312048e-04 2.26887166175890775e-01 1.62644722055986901e-01 2.26887166175890775e-01 1.62644722055986901e-01 -4.50748207969968668e-05 -8.53777319120736463e-04
3.41500000000000000e+10 3.71169308535874431e-05 5.32410359182625137e-04 2.66327849962759877e-01 8.40065243795828087e-02 2.66327849962759877e-01 8.40065243795828087e-02 9.29675645249750988e-05 -1.13197251649819228e-03
3.41600000000000000e+10 8.67986531684484370e-04 -7.62452887932678282e-04 2.78597099099848033e-01 -2.69880146021141349e-03 2.78597099099848033e-01 -2.69880146021141349e-03 -6.00207954893088491e-04 3.07181665820887586e-04
3.41700000000000000e+10 5.32568231408879554e-04 1.29561216629535490e-03 2.63046237353658952e-01 -8.81371553485064824e-02 2.63046237353658952e-01 -8.81371553485064824e-02 5.55810034938096693e-04 6.71418358404827532e-04
3.41800000000000000e+10 -7.23362461467140342e-05 -2.69654176313541482e-05 2.23419232605275714e-01 -1.65625655333569599e-01 2.23419232605275714e-01 -1.65625655333569599e-01 -4.22072498962156864e-04 8.65924931580672099e-04
3.41900000000000000e+10 -1.07410637593318000e-03 -1.68660547332966277e-04 1.60168096932873261e-01 -2.27403045305085039e-01 1.60168096932873261e-01 -2.27403045305085039e-01 -2.80913081236596645e-04 2.51572923412987288e-06
3.42000000000000000e+10 3.63382139659349662e-04 -3.21114611360614208e-04 8.27719123290665271e-02 -2.66687531993637983e-01 8.27719123290665271e-02 -2.66687531993637983e-01 6.25429454176619861e-04 -1.03533615584674109e-03
3.42100000000000000e+10 -6.87643473205069898e-04 8.31206439425925358e-04 -2.59067390282833546e-03 -2.79250441416142026e-01 -2.59067390282833546e-03 -2.79250441416142026e-01 -1.57608073351034366e-04 -4.42243712767973808e-04
3.42200000000000000e+10 -5.19571440320327213e-04 -3.28041453595391769e-04 -8.96739254609072028e-02 -2.64404271219364218e-01 -8.96739254609072028e-02 -2.64404271219364218e-01 7.12497029988341975e-04 -9.62908407522372568e-04
3.42300000000000000e+10 -1.28372166040492794e-04 3.98361598895143293e-04 -1.67323043988734543e-01 -2.23246766378211170e-01 -1.67323043988734543e-01 -2.23246766378211170e-01 -3.69369403139379281e-04 3.38709713098401589e-04
3.42400000000000000e+10 -8.54245598351649916e-04 6.71310006240137362e-04 -2.27224831846476294e-01 -1.60555242957109795e-01 -2.27224831846476294e-01 -1.60555242957109795e-01 8.74539361693924401e-04 -4.96612630827302079e-04
3.42500000000000000e+10 5.40065820496045184e-04 5.50255018597608733e-04 -2.65273273617593675e-01 -8.33387574812239074e-02 -2.65273273617593675e-01 -8.33387574812239074e-02 -2.44867998605866630e-04 1.29123699214048681e-03
3.42600000000000000e+10 5.53440577976533807e-04 -5.31606632948973296e-04 -2.77709020236735771e-01 3.12733975941856040e-03 -2.77709020236735771e-01 3.12733975941856040e-03 6.22470078092407508e-04 -9.49897111273837586e-04
3.42700000000000000e+10 -8.32426185186046661e-04 4.33357702130520600e-05 -2.63278701413368010e-01 8.97586965095001771e-02 -2.63278701413368010e-01 8.97586965095001771e-02 7.76858409597200078e-04 1.33271589241137217e-03
3.42800000000000000e+10 -8.72911632040516907e-04 -8.99696557683995514e-04 -2.23008892590907865e-01 1.66261307607032283e-01 -2.23008892590907865e-01 1.66261307607032283e-01 -3.51492927760839685e-04 2.53282912497139066e-04
3.42900000000000000e+10 -4.02506015882180674e-04 -2.35100546314525365e-05 -1.61060896383956070e-01 2.27319947093742730e-01 -1.61060896383956070e-01 2.27319947093742730e-01 -4.67699682448758660e-04 -3.51496245274709367e-04
3.43000000000000000e+10 -4.95367823595864497e-04 -9.23480946875640139e-04 -8.27278742358836389e-02 2.64961133796975723e-01 -8.27278742358836389e-02 2.64961133796975723e-01 3.31376257222836326e-04 8.79928697202652147e-04
3.43100000000000000e+10 -3.29651366087283675e-04 -2.94466011303536296e-04 3.41565634987929696e-03 2.78694377138215821e-01 3.41565634987929696e-03 2.78694377138215821e-01 -1.32038092663432148e-03 4.63211560616707944e-04
3.43200000000000000e+10 7.07697756931124954e-04 -2.01205074339499057e-03 8.90873975475808960e-02 2.62556870967680933e-01 8.90873975475808960e-02 2.62556870967680933e-01 -4.49966840529205964e-04 2.52984747376424138e-04
3.43300000000000000e+10 -1.95173657805140506e-03 3.06688351670078097e-04 1.66485363779649592e-01 2.23668494336504570e-01 1.66485363779649592e-01 2.23668494336504570e-01 -7.44605805693932974e-04 2.65002135585040667e-04
3.43400000000000000e+10 6.85822596063741328e-04 1.09609063027140568e-03 2.26097974274684616e-01 1.60045894037745051e-01 2.26097974274684616e-01 1.60045894037745051e-01 -1.36544865551111502e-03 7.87140409451151019e-05
3.43500000000000000e+10 5.58927185909190573e-04 4.82053431244477005e-04 2.65282602784702726e-01 8.25599873134362922e-02 2.65282602784702726e-01 8.25599873134362922e-02 -1.67302459268029433e-03 4.17867019863819671e-04
3.43600000000000000e+10 1.16528085600471338e-03 -7.18860763287865624e-04 2.76968339350484982e-01 -3.54257121378703322e-03 2.76968339350484982e-01 -3.54257121378703322e-03 -1.92127811536669710e-03 4.36129285147148987e-05
3.43700000000000000e+10 1.39313512748020563e-03 3.03405374106036161e-04 2.62146313408072762e-01 -8.98462194744920062e-02 2.62146313408072762e-01 -8.98462194744920062e-02 -9.98255801899332286e-04 9.35050273825322321e-04
3.43800000000000000e+10 -8.51472284029898433e-05 3.62165661022914695e-04 2.22421071502923728e-01 -1.66775696769017656e-01 2.22421071502923728e-01 -1.66775696769017656e-01 -5.46422433966343730e-04 6.17915850966781113e-04
3.43900000000000000e+10 4.31485606047749264e-04 4.46533211405023616e-05 1.60083376886559020e-01 -2.26195173345196315e-01 1.60083376886559020e-01 -2.26195173345196315e-01 1.30299981115409810e-03 6.43162571661545432e-04
3.44000000000000000e+10 9.37604848884500538e-05 -5.89323564772645421e-04 8.15629658895431486e-02 -2.65241461627650166e-01 8.15629658895431486e-02 -2.65241461627650166e-01 5.15867876970440100e-04 -5.26783536792507540e-04
3.44100000000000000e+10 8.22951603839063077e-05 9.01650243479099880e-04 -3.90769052989856525e-03 -2.77199779415850889e-01 -3.90769052989856525e-03 -2.77199779415850889e-01 -1.98011153873129677e-04 3.97575071035699622e-04
3.44200000000000000e+10 9.53818311228697051e-04 4.38712196556128046e-04 -8.88848290311428091e-02 -2.62842584778499311e-01 -8.88848290311428091e-02 -2.62842584778499311e-01 8.19845767142075919e-06 -8.10989926621884932e-05
3.44300000000000000e+10 1.82561834472477245e-05 1.07725173655368300e-04 -1.66919081199221248e-01 -2.22197294358701003e-01 -1.66919081199221248e-01 -2.22197294358701003e-01 -9.18054380463036038e-04 -3.49899011780174362e-04
3.44400000000000000e+10 -6.12997450416544448e-04 -3.61052393816545236e-04 -2.26810182832079821e-01 -1.60439944593921607e-01 -2.26810182832079821e-01 -1.60439944593921607e-01 -4.59617912669129563e-04 -5.37131764102273469e-04
3.44500000000000000e+10 -8.02762004231463158e-05 -5.31593120708267035e-05 -2.63862132944511607e-01 -8.28440900943234054e-02 -2.63862132944511607e-01 -8.28440900943234054e-02 -1.82249604818039658e-03 3.14133202114741633e-04
3.44600000000000000e+10 -6.73235432014165328e-04 4.95625189284546559e-04 -2.77493291823776300e-01 3.47879844521870301e-03 -2.77493291823776300e-01 3.47879844521870301e-03 -3.89904768904006653e-04 -9.72232393051370407e-05
3.44700000000000000e+10 9.84067340376631918e-05 3.29365281378114197e-04 -2.62074102553002675e-01 8.87603780618343996e-02 -2.62074102553002675e-01 8.87603780618343996e-02 9.92890487073431761e-05 1.80856875831622230e-03
3.44800000000000000e+10 -1.63685022179286025e-04 3.52128757381280902e-04 -2.20330126325957387e-01 1.66669868283714245e-01 -2.20330126325957387e-01 1.66669868283714245e-01 -8.15555851564513058e-04 1.11115470092476533e-03
3.44900000000000000e+10 -9.07615362685430371e-04 7.70033248257645064e-04 -1.58810748989809652e-01 2.27073469467366562e-01 -1.58810748989809652e-01 2.27073469467366562e-01 -6.46104561501409272e-05 5.69568064584728630e-04
3.45000000000000000e+10 -6.06795943989127135e-04 6.31473577378033530e-04 -8.13434490366876928e-02 2.64345048129992655e-01 -8.13434490366876928e-02 2.64345048129992655e-01 -3.62763777790546443e-05 8.82777862892157665e-05
3.45100000000000000e+10 -7.54844874294623852e-04 -3.83542007268143452e-04 4.18186004938933282e-03 2.76663529902752781e-01 4.18186004938933282e-03 2.76663529902752781e-01 3.45522007779284612e-04 2.53611848986441853e-04
3.45200000000000000e+10 -3.71953961848462051e-04 -1.11765552121285928e-03 9.10203734913582474e-02 2.62011434592337167e-01 9.10203734913582474e-02 2.62011434592337167e-01 -9.07801650619480456e-04 3.30224761762368897e-04
3.45300000000000000e+10 -6.94465375888720662e-04 1.47040577648587548e-04 1.67015910655514660e-01 2.20303856609319199e-01 1.67015910655514660e-01 2.20303856609319199e-01 3.51046946708719380e-04 7.72273025608076095e-05
3.45400000000000000e+10 -4.21743779260702438e-04 8.38335288322463292e-04 2.27187022714637282e-01 1.59827457731289951e-01 2.27187022714637282e-01 1.59827457731289951e-01 -6.41143142272008353e-04 7.97219673909925123e-05
3.45500000000000000e+10 5.18260600925034656e-04 -9.37411876573847769e-04 2.64228772066510242e-01 8.11080040668260421e-02 2.64228772066510242e-01 8.11080040668260421e-02 -7.37289355343913170e-04 -9.57635341774040142e-04
3.45600000000000000e+10 -1.28829608607491063e-03 1.24231666107815509e-04 2.76798240728587885e-01 -5.13931912315144374e-03 2.76798240728587885e-01 -5.13931912315144374e-03 -7.13906890361924533e-04 1.22171651938114706e-04
3.45700000000000000e+10 1.59780660331339903e-03 -6.86738930856513503e-04 2.62087368928960951e-01 -8.96794669348200124e-02 2.62087368928960951e-01 -8.96794669348200124e-02 -2.76253177817943922e-04 2.84809225544963840e-05
3.45800000000000000e+10 -5.29505751001251739e-04 -6.79370309097083644e-04 2.22129236522795315e-01 -1.65535100461819296e-01 2.22129236522795315e-01 -1.65535100461819296e-01 8.58336216844799728e-04 -6.09973166775585078e-04
3.45900000000000000e+10 3.52505654199121823e-04 6.23156462221973080e-04 1.57897975970431259e-01 -2.27316113085401811e-01 1.57897975970431259e-01 -2.27316113085401811e-01 3.19448897350500392e-04 -1.11833013180405666e-03
3.46000000000000000e+10 -1.18517775569514745e-03 -2.52819712113411851e-04 8.04343885762296013e-02 -2.63793404369505047e-01 8.04343885762296013e-02 -2.63793404369505047e-01 9.21622679845716703e-04 -4.58668594504887614e-04
3.46100000000000000e+10 -6.09542581844755020e-04 3.24934805839932194e-04 -5.84642702801023428e-03 -2.76925264643878899e-01 -5.84642702801023428e-03 -2.76925264643878899e-01 -7.30536939916268677e-04 4.04922483305121344e-04
3.46200000000000000e+10 -1.20436721552340904e-03 8.69276604294757561e-04 -9.03008777000896129e-02 -2.60863943965212230e-01 -9.03008777000896129e-02 -2.60863943965212230e-01 -4.89880326905203691e-04 -8.01237939596336499e-04
3.46300000000000000e+10 4.04859585883829279e-04 -1.81886190869521333e-04 -1.65694636005918994e-01 -2.20582228929158158e-01 -1.65694636005918994e-01 -2.20582228929158158e-01 -9.59000924343491289e-04 -7.66303702088797986e-04
3.46400000000000000e+10 3.52940233642365972e-04 -1.37409898821110803e-03 -2.24729764197276499e-01 -1.58382635738939570e-01 -2.24729764197276499e-01 -1.58382635738939570e-01 -2.84338241895192977e-04 -1.87822144413306459e-04
3.46500000000000000e+10 3.72255368603868883e-04 -1.90725034590461586e-04 -2.63814598104026854e-01 -7.96321023694272906e-02 -2.63814598104026854e-01 -7.96321023694272906e-02 -3.36238541201887222e-04 7.05660933487376797e-04
3.46600000000000000e+10 -1.03068304244766985e-03 9.68027549067540126e-04 -2.76308533222418162e-01 5.74605205630455539e-03 -2.76308533222418162e-01 5.74605205630455539e-03 -1.35427750720370252e-03 -8.76263555801957581e-04
3.46700000000000000e+10 1.98387800141514552e-04 -1.45764129023607516e-03 -2.61449542376889832e-01 9.01940953358269792e-02 -2.61449542376889832e-01 9.01940953358269792e-02 2.52834696721606581e-04 8.06433465495215137e-04
3.46800000000000000e+10 -3.55614789748879656e-04 5.01070490889621648e-04 -2.20338088928395459e-01 1.66344608226457136e-01 -2.20338088928395459e-01 1.66344608226457136e-01 -5.67118243113999879e-05 3.59332997806060021e-04
3.46900000000000000e+10 -6.76401653992931618e-04 -5.67166333308168633e-04 -1.58286663149888485e-01 2.26739317609201435e-01 -1.58286663149888485e-01 2.26739317609201435e-01 -1.10774135384923049e-03 8.92391345081296303e-04
3.47000000000000000e+10 1.63856018435510318e-04 4.55837598418460191e-04 -7.94961811024014336e-02 2.64522114798366015e-01 -7.94961811024014336e-02 2.64522114798366015e-01 8.35563043424338557e-04 -4.12085327335506759e-04
3.47100000000000000e+10 -8.73234699708232620e-04 2.25694200922982622e-04 5.27368695965997440e-03 2.75670196989266203e-01 5.27368695965997440e-03 2.75670196989266203e-01 5.27084327821989969e-04 -4.26547713268906592e-05
3.47200000000000000e+10 -1.43221896332518315e-04 -1.40285072036030518e-04 9.09594983159097842e-02 2.60700316066083959e-01 9.09594983159097842e-02 2.60700316066083959e-01 4.48577143650834634e-04 2.67540018694596161e-05
3.47300000000000000e+10 9.34738403612963561e-05 -5.12283085664545215e-04 1.66297246079740946e-01 2.19397975319645194e-01 1.66297246079740946e-01 2.19397975319645194e-01 5.43663575814895225e-04 2.17335497640059293e-04
3.47400000000000000e+10 -3.38851372496523032e-04 5.89636711054131852e-04 2.25778375939979542e-01 1.58163066975405442e-01 2.25778375939979542e-01 1.58163066975405442e-01 8.05308589240545613e-06 1.18332718216714343e-03
3.47500000000000000e+10 1.03973993457237636e-05 -9.79751282733827729e-04 2.63307022568398441e-01 8.03558135049849409e-02 2.63307022568398441e-01 8.03558135049849409e-02 6.93956183232756680e-04 -5.27349523498872922e-05
3.47600000000000000e+10 -1.40825792361586087e-03 -3.78792407741851487e-04 2.76140195426157087e-01 -4.62371946964852589e-03 2.76140195426157087e-01 -4.62371946964852589e-03 5.88909009420819575e-04 -3.89144964242542433e-04
3.47700000000000000e+10 4.83416583661297646e-04 -1.05716376630121624e-04 2.60938588563161766e-01 -9.00738211949329709e-02 2.60938588563161766e-01 -9.00738211949329709e-02 -1.10657907882762412e-05 7.93122485346201190e-05
3.47800000000000000e+10 -5.13911617099543374e-04 -5.27326281148337195e-04 2.21298119457426112e-01 -1.66959995235749559e-01 2.21298119457426112e-01 -1.66959995235749559e-01 1.19960603943437697e-03 1.06502965212875323e-03
3.47900000000000000e+10 -8.71765503761739198e-06 -9.42852241471682593e-04 1.57091315169046675e-01 -2.24918069664069825e-01 1.57091315169046675e-01 -2.24918069664069825e-01 -6.55152841193308306e-05 -3.37172013322003443e-04
3.48000000000000000e+10 4.42126177538792900e-05 1.21960747734222450e-03 8.11077685542598292e-02 -2.63300941529949817e-01 8.11077685542598292e-02 -2.63300941529949817e-01 4.85287167617712777e-04 1.09299348308089148e-03
3.48100000000000000e+10 -5.69762811054547874e-04 1.58378507150378693e-03 -6.20251488516655389e-03 -2.75996434248389655e-01 -6.20251488516655389e-03 -2.75996434248389655e-01 -3.73767698339010697e-05 -6.38753657105821837e-04
3.48200000000000000e+10 -7.81996899256758981e-04 -1.85621447839481526e-04 -9.10749998297072927e-02 -2.60410504043849078e-01 -9.10749998297072927e-02 -2.60410504043849078e-01 1.73570099470249427e-04 2.29220603757085292e-04
3.48300000000000000e+10 -4.25903316121891405e-04 -4.87810302742968044e-04 -1.67884637017702287e-01 -2.17594721436802224e-01 -1.67884637017702287e-01 -2.17594721436802224e-01 9.87998680779530970e-04 1.89990162939547097e-04
3.48400000000000000e+10 -3.26145854740838941e-04 5.27342752036003980e-04 -2.25619999290415790e-01 -1.55060605258296597e-01 -2.25619999290415790e-01 -1.55060605258296597e-01 -6.69513956711400367e-04 4.57317434817281301e-04
3.48500000000000000e+10 5.25344865237114666e-04 -3.19668624068845377e-04 -2.63638479434112172e-01 -8.02259867659038117e-02 -2.63638479434112172e-01 -8.02259867659038117e-02 -2.98144707176392285e-04 2.57672143540379475e-04
3.48600000000000000e+10 2.78887776676965053e-04 -1.01430409392925104e-03 -2.75682402202227284e-01 5.77408393474364463e-03 -2.75682402202227284e-01 5.77408393474364463e-03 6.85046728486100355e-04 -3.39598233150491775e-05
3.48700000000000000e+10 1.08024648548344965e-03 -2.86202058103809357e-04 -2.60009816492302981e-01 9.14833627972184843e-02 -2.60009816492302981e-01 9.14833627972184843e-02 -5.33920841009009081e-04 2.44127738353677524e-05
3.48800000000000000e+10 5.50507188460494816e-04 -1.43209010355381527e-04 -2.17761571387775466e-01 1.65205585024222390e-01 -2.17761571387775466e-01 1.65205585024222390e-01 -4.11367303023863645e-04 6.23350312361942871e-05
3.48900000000000000e+10 4.90099748917117040e-04 -8.43736373121026467e-04 -1.55759620814985233e-01 2.26710192358472479e-01 -1.55759620814985233e-01 2.26710192358472479e-01 -6.66593762883139086e-04 4.09006245696561627e-04
3.49000000000000000e+10 -9.25087916028795461e-04 -8.76872363155255003e-05 -7.85028882388838500e-02 2.64216134769788058e-01 -7.85028882388838500e-02 2.64216134769788058e-01 9.98333560936582242e-04 5.49153023256388818e-04
3.49100000000000000e+10 -7.46303129234753134e-04 5.06885408566248212e-04 7.06918528145569248e-03 2.74471703214647700e-01 7.06918528145569248e-03 2.74471703214647700e-01 -8.61670727008973756e-05 1.01975113250172243e-03
3.49200000000000000e+10 4.16879240262041048e-04 1.25380738093693934e-04 9.19255869409909693e-02 2.59063805738635355e-01 9.19255869409909693e-02 2.59063805738635355e-01 -2.90259293813287841e-04 -8.50717891671223152e-04
3.49300000000000000e+10 -1.31929429391637837e-03 -1.54099857831597846e-03 1.66215179244345201e-01 2.17800795517662404e-01 1.66215179244345201e-01 2.17800795517662404e-01 -4.27379922878380950e-04 -3.12093179389810510e-04
3.49400000000000000e+10 5.04856661629153516e-04 1.95462233285222635e-04 2.25535811974716394e-01 1.56288567105715065e-01 2.25535811974716394e-01 1.56288567105715065e-01 -7.23003632412884379e-04 -6.32270921432925067e-04
3.49500000000000000e+10 -3.32738011219044531e-04 3.29175527282068938e-04 2.63973371561557979e-01 7.91384072439016567e-02 2.63973371561557979e-01 7.91384072439016567e-02 -6.94616675494243770e-04 -8.28811460634458898e-04
3.49600000000000000e+10 3.31387147127178323e-04 1.40293776599609646e-04 2.73590442579356607e-01 -7.12381534714559995e-03 2.73590442579356607e-01 -7.12381534714559995e-03 1.82224215541522600e-03 -2.86408993952628468e-04
3.49700000000000000e+10 -1.48421273163212505e-03 -8.56498034532356166e-04 2.59309344904654349e-01 -9.24846621145868492e-02 2.59309344904654349e-01 -9.24846621145868492e-02 2.54679200275903885e-04 -1.10764672955566425e-03
3.49800000000000000e+10 -6.68050438833067976e-04 6.41469446602900800e-04 2.17643723607728629e-01 -1.67954438111167947e-01 2.17643723607728629e-01 -1.67954438111167947e-01 -1.59250836829918079e-05 1.12086453469281030e-04
3.49900000000000000e+10 -9.97231851520823261e-05 6.26694126943657640e-04 1.55373637786739044e-01 -2.25109800339171467e-01 1.55373637786739044e-01 -2.25109800339171467e-01 -1.68554994162199842e-04 1.13725152088945583e-05
3.50000000000000000e+10 -1.57314935685807285e-03 -4.32951368486123554e-04 7.89033206033065149e-02 -2.60254926459947078e-01 7.89033206033065149e-02 -2.60254926459947078e-01 1.48864047085247745e-04 6.44682715230809357e-05
3.50100000000000000e+10 9.36008318550698082e-04 -1.49408726428842107e-03 -7.41835043095851344e-03 -2.73060799639502361e-01 -7.41835043095851344e-03 -2.73060799639502361e-01 -4.36692613613177060e-04 1.10646983142340566e-04
3.50200000000000000e+10 -1.24774734350260717e-04 -9.72665932584391600e-04 -9.15141207049024880e-02 -2.59696690364304095e-01 -9.15141207049024880e-02 -2.59696690364304095e-01 6.33775523948158347e-04 -3.15617774160147470e-04
3.50300000000000000e+10 3.95800075292537801e-04 1.68867500911210554e-03 -1.67067285872899846e-01 -2.17326191690947718e-01 -1.67067285872899846e-01 -2.17326191690947718e-01 -1.04600626451671876e-04 -8.40990156590302909e-04
3.50400000000000000e+10 1.14207286089187563e-04 -1.06194033607614558e-03 -2.25028309331526760e-01 -1.54944307118937225e-01 -2.25028309331526760e-01 -1.54944307118937225e-01 -4.31598570761019350e-05 -1.30725584656960869e-03
3.50500000000000000e+10 -1.34557184756514930e-04 1.14831592138426900e-04 -2.62969407871235850e-01 -7.82336892172718623e-02 -2.62969407871235850e-01 -7.82336892172718623e-02 -8.49924865859574418e-05 5.13861299346196084e-05
3.50600000000000000e+10 1.17773863873416561e-03 7.88375706043289819e-04 -2.73519517725020755e-01 7.36760208568421407e-03 -2.73519517725020755e-01 7.36760208568421407e-03 -4.02252251091247427e-04 -3.77292800029749797e-04
3.50700000000000000e+10 -1.45267234897334318e-03 -3.03844344054582242e-04 -2.56675012257188084e-01 9.05531133341461736e-02 -2.56675012257188084e-01 9.05531133341461736e-02 -5.79748372236307905e-04 8.79022066626720337e-04
3.50800000000000000e+10 -1.81851638047050494e-05 3.54103463183619315e-04 -2.17466106069368281e-01 1.67952362850727066e-01 -2.17466106069368281e-01 1.67952362850727066e-01 4.61817609965054757e-04 -1.22965797906545273e-03
3.50900000000000000e+10 2.48165336114441137e-04 1.46902292551111344e-04 -1.55357221779033938e-01 2.25066693490152514e-01 -1.55357221779033938e-01 2.25066693490152514e-01 9.64374333339565199e-04 -8.97241181613848428e-04
3.51000000000000000e+10 -6.12933770975360344e-04 -3.71405232107323080e-05 -7.65867074390226554e-02 2.62545263657450789e-01 -7.65867074390226554e-02 2.62545263657450789e-01 5.70273055525067122e-04 2.46364216519095948e-04
3.51100000000000000e+10 1.03757400556039035e-03 2.16296748572385411e-04 8.39955197463489352e-03 2.74752408505709755e-01 8.39955197463489352e-03 2.74752408505709755e-01 2.41929977965193494e-04 2.76985725880193293e-04
3.51200000000000000e+10 1.06571293865225414e-03 1.08437573913252173e-03 9.12624997290779755e-02 2.58418751808715152e-01 9.12624997290779755e-02 2.58418751808715152e-01 9.71637439859319996e-04 -1.49329728446178533e-04
3.51300000000000000e+10 -2.22884722592630631e-04 5.56367830112093858e-04 1.67451142138812764e-01 2.15729198712150294e-01 1.67451142138812764e-01 2.15729198712150294e-01 6.65948357764691869e-04 -1.06296395443306025e-03
3.51400000000000000e+10 3.91653522038333405e-04 -1.59062838380802677e-03 2.27259033089425938e-01 1.53844552704411802e-01 2.27259033089425938e-01 1.53844552704411802e-01 4.67688011490620533e-04 -1.71762881626669726e-04
3.51500000000000000e+10 -1.50614298857509594e-03 5.11172562769269937e-04 2.61348674737858999e-01 7.70790247229903164e-02 2.61348674737858999e-01 7.70790247229903164e-02 -5.11758517670875854e-04 2.80621544238947564e-05
3.51600000000000000e+10 -9.49196003777478029e-04 6.67979079301323482e-06 2.72335904625761571e-01 -6.72231866325255587e-03 2.72335904625761571e-01 -6.72231866325255587e-03 -4.53480989359385367e-05 -3.35504812663170351e-04
3.51700000000000000e+10 1.11245708037343988e-04 2.76459656078685578e-04 2.57817520094782426e-01 -9.21989222791248231e-02 2.57817520094782426e-01 -9.21989222791248231e-02 8.18002541568016092e-04 -3.35076396255278226e-04
3.51800000000000000e+10 1.84745830738112856e-05 -4.55655485721800197e-04 2.16410964500129949e-01 -1.65968119689997473e-01 2.16410964500129949e-01 -1.65968119689997473e-01 -7.26970209171089155e-04 -1.39572423055222563e-03
3.51900000000000000e+10 -7.47902864926182104e-05 1.04308675370010193e-04 1.54229826943913989e-01 -2.24505914997152334e-01 1.54229826943913989e-01 -2.24505914997152334e-01 -7.53958606094924216e-05 -1.39512039230319001e-04
3.52000000000000000e+10 -3.64903973535643023e-04 1.67118539701812145e-03 7.62936813026396099e-02 -2.62501985233086710e-01 7.62936813026396099e-02 -2.62501985233086710e-01 4.47270338281418169e-04 -4.70296916239681332e-04
3.52100000000000000e+10 -2.39892432742689786e-04 -1.33107257931716866e-03 -8.27305670384712553e-03 -2.73542476589035188e-01 -8.27305670384712553e-03 -2.73542476589035188e-01 -4.16852333047777019e-04 5.67526653320512327e-04
3.52200000000000000e+10 -1.38839667849707023e-03 1.84159692063655270e-03 -9.25661104736515000e-02 -2.57691882824700846e-01 -9.25661104736515000e-02 -2.57691882824700846e-01 4.12262027915034045e-04 -6.31319670401352681e-04
3.52300000000000000e+10 9.04689448022278562e-05 1.89510514418028025e-04 -1.66458871156296928e-01 -2.16145437495901288e-01 -1.66458871156296928e-01 -2.16145437495901288e-01 1.04890392607212145e-03 -1.14401949516563945e-04
3.52400000000000000e+10 -1.37968322006543900e-03 4.17033200799378945e-04 -2.26049438657524082e-01 -1.53745666729553698e-01 -2.26049438657524082e-01 -1.53745666729553698e-01 -1.18010696705922965e-04 -2.46401020477824339e-03
3.52500000000000000e+10 2.90712825434447943e-04 1.01144661631568907e-03 -2.62108110487369039e-01 -7.64936925153416880e-02 -2.62108110487369039e-01 -7.64936925153416880e-02 3.77081306917433014e-04 -1.44021022138046034e-05
3.52600000000000000e+10 -3.59606650492917939e-04 -3.57847983258949959e-04 -2.73470190076816388e-01 7.55428050708935577e-03 -2.73470190076816388e-01 7.55428050708935577e-03 9.30789591839445733e-04 -5.31783509961532936e-04
3.52700000000000000e+10 9.94518892156811976e-04 7.03462964307968079e-04 -2.56178510414811988e-01 9.09766086665662888e-02 -2.56178510414811988e-01 9.09766086665662888e-02 1.40844233370341059e-03 6.82628740936720301e-04
3.52800000000000000e+10 -3.52625626149335146e-04 -5.70665117417797082e-05 -2.15199014209960793e-01 1.66160280529808718e-01 -2.15199014209960793e-01 1.66160280529808718e-01 -8.31682901264867597e-05 4.14227329080655714e-04
3.52900000000000000e+10 -1.16917091478449279e-04 -7.46399755001601840e-04 -1.51653587306965293e-01 2.26370916428288022e-01 -1.51653587306965293e-01 2.26370916428288022e-01 -1.21697617623294039e-03 1.16660336163046017e-03
3.53000000000000000e+10 1.20897229982327160e-04 8.62858873358848225e-04 -7.61551632208349316e-02 2.61805763173296346e-01 -7.61551632208349316e-02 2.61805763173296346e-01 7.38856132983819460e-04 -7.51753912335212122e-04
3.53100000000000000e+10 7.05597134100210835e-04 -5.33683854344937426e-04 7.60518604052653861e-03 2.71520869740966342e-01 7.60518604052653861e-03 2.71520869740966342e-01 3.77963907858648053e-04 1.19312369461648692e-05
3.53200000000000000e+10 1.16348466821445152e-04 -7.64603470893898511e-04 9.36404914346778555e-02 2.56397146675477583e-01 9.36404914346778555e-02 2.56397146675477583e-01 6.08532471127186804e-04 2.84573749777559200e-04
3.53300000000000000e+10 4.76093437120071392e-04 -8.46730749037696634e-04 1.66957107922004661e-01 2.14606700994893651e-01 1.66957107922004661e-01 2.14606700994893651e-01 4.69843991957602275e-04 7.03300525230982207e-04
3.53400000000000000e+10 -5.13617344296527769e-04 -6.81075887778667590e-04 2.25654796913002609e-01 1.53769693843887528e-01 2.25654796913002609e-01 1.53769693843887528e-01 1.10455591126910088e-03 -2.22389303839591943e-04
3.53500000000000000e+10 -7.56235802825896107e-04 -4.19377274229528970e-04 2.61035494424514791e-01 7.53768126593389876e-02 2.61035494424514791e-01 7.53768126593389876e-02 -5.18026122555742237e-04 3.30638040747401724e-04
3.53600000000000000e+10 1.03077500142575415e-04 6.34518025178413539e-04 2.72059993886329676e-01 -8.85933617488359609e-03 2.72059993886329676e-01 -8.85933617488359609e-03 3.92613625304578126e-04 -6.52239202177307326e-04
3.53700000000000000e+10 3.79876747758875184e-04 4.68348037248942099e-04 2.56429866154042341e-01 -9.25329890708278813e-02 2.56429866154042341e-01 -9.25329890708278813e-02 -7.66065473408360031e-05 -4.94901046358612977e-04
3.53800000000000000e+10 -5.42052286804485658e-04 5.91182138503036940e-04 2.15514336439101895e-01 -1.67133762281376441e-01 2.15514336439101895e-01 -1.67133762281376441e-01 -4.87176943169385555e-04 3.92135600719984768e-04
3.53900000000000000e+10 6.73837176916795659e-05 3.80112100775003030e-06 1.52981983502725905e-01 -2.24800551474871740e-01 1.52981983502725905e-01 -2.24800551474871740e-01 -7.15119012657428337e-04 -2.59223102246052751e-05
3.54000000000000000e+10 -6.02325889107599194e-04 1.65618574225791292e-04 7.83892269014782178e-02 -2.61779897914806547e-01 7.83892269014782178e-02 -2.61779897914806547e-01 9.69322639634521781e-04 1.22905321345259623e-03
3.54100000000000000e+10 4.64548709640437191e-04 1.41221830916564011e-04 -9.11635774129205580e-03 -2.72414026213720739e-01 -9.11635774129205580e-03 -2.72414026213720739e-01 3.79871707773524084e-04 3.63375784433715775e-04
3.54200000000000000e+10 6.18822524201932613e-04 -1.13990373176383144e-03 -9.23683591984473806e-02 -2.56129010138897439e-01 -9.23683591984473806e-02 -2.56129010138897439e-01 -6.00297902948159347e-04 4.98197155199820905e-04
3.54300000000000000e+10 -1.12516070639615920e-04 3.99759313881710952e-04 -1.66792220241019362e-01 -2.14410281040992079e-01 -1.66792220241019362e-01 -2.14410281040992079e-01 -4.60219350219806111e-04 1.03746501687310990e-03
3.54400000000000000e+10 7.56976629733373762e-04 -7.35898884422019257e-04 -2.26651997802163607e-01 -1.52166604550950768e-01 -2.26651997802163607e-01 -1.52166604550950768e-01 -1.00167855704297272e-03 1.76724368338342249e-03
3.54500000000000000e+10 5.22765100283480427e-04 -7.39449109473834255e-05 -2.61979458491684580e-01 -7.60159045740914363e-02 -2.61979458491684580e-01 -7.60159045740914363e-02 -2.83892691318131266e-04 2.83523815427767615e-04
3.54600000000000000e+10 -1.34247450898271987e-03 1.54382271416742272e-03 -2.71698496960388169e-01 7.46296665415978680e-03 -2.71698496960388169e-01 7.46296665415978680e-03 4.37265303804820489e-04 6.50053572005758560e-04
3.54700000000000000e+10 1.53520604529006435e-03 -1.05895967675297023e-03 -2.57021581384809017e-01 9.22628320793662526e-02 -2.57021581384809017e-01 9.22628320793662526e-02 -3.97394338864280518e-04 -7.55853954806654708e-05
3.54800000000000000e+10 1.40072614949625731e-03 -8.56046049330401590e-04 -2.14481757224298797e-01 1.67542337173326839e-01 -2.14481757224298797e-01 1.67542337173326839e-01 1.02903890301814788e-04 -9.57875384918972631e-04
3.54900000000000000e+10 4.62137459947170950e-04 -7.81239084260653338e-04 -1.52591890051064855e-01 2.25958850406177414e-01 -1.52591890051064855e-01 2.25958850406177414e-01 3.10983882732692823e-05 1.08020871887697469e-03
3.55000000000000000e+10 -6.63110873909264682e-05 6.61980775018301869e-04 -7.41783564095127024e-02 2.61659927283393101e-01 -7.41783564095127024e-02 2.61659927283393101e-01 -9.87717935759596454e-05 8.95228377086173730e-05
3.55100000000000000e+10 2.56494739069384483e-04 3.79313432771196909e-04 9.39723472976692134e-03 2.71787084248580224e-01 9.39723472976692134e-03 2.71787084248580224e-01 -2.48907603819651377e-04 2.00188272178683822e-04
3.55200000000000000e+10 -5.29883129736281920e-04 6.33331562284626735e-04 9.30133801676684274e-02 2.56333585508789097e-01 9.30133801676684274e-02 2.56333585508789097e-01 1.75875692561844549e-04 -9.70275456997856593e-04
3.55300000000000000e+10 2.75916437462476311e-04 -7.93282627252267242e-04 1.68092386692645784e-01 2.12702588911799995e-01 1.68092386692645784e-01 2.12702588911799995e-01 -1.81906779362271540e-04 7.65821428652539325e-04
3.55400000000000000e+10 2.94727616346130762e-04 1.26769617860833082e-05 2.25463435242598043e-01 1.51671088707581364e-01 2.25463435242598043e-01 1.51671088707581364e-01 -5.64866534853978946e-04 -2.81073482462761864e-04
3.55500000000000000e+10 1.18304738204583963e-03 -1.98487995930317828e-04 2.61931095208459530e-01 7.54326901349617884e-02 2.61931095208459530e-01 7.54326901349617884e-02 -5.15744013542615868e-04 -1.96241061336935389e-04
3.55600000000000000e+10 2.75729937990336325e-05 1.31144889767614587e-03 2.70576088960271410e-01 -8.45278671683069756e-03 2.70576088960271410e-01 -8.45278671683069756e-03 -2.67885253100694524e-05 4.71009842907501599e-04
3.55700000000000000e+10 -1.26246926236026432e-04 -3.99317060869928996e-04 2.55743526200636173e-01 -9.29454067156310210e-02 2.55743526200636173e-01 -9.29454067156310210e-02 -9.28311084349395005e-04 3.15287925293616608e-04
3.55800000000000000e+10 -7.20324654298042772e-04 4.56407996061926606e-04 2.13150526850517719e-01 -1.66983460102531234e-01 2.13150526850517719e-01 -1.66983460102531234e-01 -8.51233324561091829e-04 2.53967908279566646e-04
3.55900000000000000e+10 -3.60041193121417747e-04 3.20245657096924162e-04 1.51996372007530078e-01 -2.24393763992565443e-01 1.51996372007530078e-01 -2.24393763992565443e-01 5.89137202386311913e-04 -1.69615022039069566e-04
3.56000000000000000e+10 -5.00812460842407531e-04 -3.30174143656992633e-04 7.47288615717952992e-02 -2.60786383550014378e-01 7.47288615717952992e-02 -2.60786383550014378e-01 6.90686301906602454e-05 -3.05985350155599440e-04
3.56100000000000000e+10 -7.89843170809309981e-04 -3.71651107263415946e-04 -8.95842258902846550e-03 -2.71319802486830963e-01 -8.95842258902846550e-03 -2.71319802486830963e-01 -9.38364729310241447e-04 -2.31198557174103328e-04
3.56200000000000000e+10 9.60067054837402192e-04 1.87686911234420987e-04 -9.40728813528001750e-02 -2.54625069814337524e-01 -9.40728813528001750e-02 -2.54625069814337524e-01 4.91206730132764577e-04 8.58300196964335133e-05
3.56300000000000000e+10 -6.67882503475173946e-04 1.68174301192724861e-04 -1.67426610012349819e-01 -2.13420250979472065e-01 -1.67426610012349819e-01 -2.13420250979472065e-01 -1.15759189480319931e-04 9.73813065765538789e-05
3.56400000000000000e+10 -3.03650085594118254e-04 -2.32386552700772066e-04 -2.24602556620172394e-01 -1.51639970964848547e-01 -2.24602556620172394e-01 -1.51639970964848547e-01 3.86591915402002123e-04 -5.56138853544574938e-04
3.56500000000000000e+10 1.02216204336758845e-03 -2.57644414269615264e-04 -2.61353382732369521e-01 -7.40793822103136268e-02 -2.61353382732369521e-01 -7.40793822103136268e-02 -1.34532171137485726e-03 -1.04908221125849367e-04
3.56600000000000000e+10 7.87874101786305010e-04 -1.56871257655879511e-04 -2.70952298790354873e-01 9.73667457321067929e-03 -2.70952298790354873e-01 9.73667457321067929e-03 2.34673704545484349e-06 -2.18334712257819361e-04
3.56700000000000000e+10 8.27652518709541909e-04 -5.45697536505453104e-05 -2.54336113773853956e-01 9.29916424043076839e-02 -2.54336113773853956e-01 9.29916424043076839e-02 -6.12283364581633904e-04 -9.10302643074966961e-04
3.56800000000000000e+10 5.84528791893292542e-04 -7.65419515816071969e-04 -2.12404203613827253e-01 1.66677823853624618e-01 -2.12404203613827253e-01 1.66677823853624618e-01 -8.36415658534438535e-04 6.57384075735366119e-04
3.56900000000000000e+10 1.63137014499600278e-05 8.23762758597987831e-04 -1.51665558358055758e-01 2.24788395173612765e-01 -1.51665558358055758e-01 2.24788395173612765e-01 1.07919206117314303e-03 -1.10011468082154055e-03
3.57000000000000000e+10 1.20276537092806448e-03 -5.86199799043826212e-05 -7.33401693702929736e-02 2.59947889100751395e-01 -7.33401693702929736e-02 2.59947889100751395e-01 3.52823263926736795e-04 -9.34926486149364674e-04
3.57100000000000000e+10 2.37125478239368602e-04 -1.28431118541889834e-03 9.48801229395859237e-03 2.71146519221808158e-01 9.48801229395859237e-03 2.71146519221808158e-01 3.18655898755642382e-04 -2.65682714026026288e-04
3.57200000000000000e+10 8.62533070653067452e-04 7.51923668366153117e-06 9.39429680465069666e-02 2.55374804364082053e-01 9.39429680465069666e-02 2.55374804364082053e-01 3.81628484092592576e-04 -1.08952570984421709e-03
3.57300000000000000e+10 -2.45634349912709918e-05 -4.18236016908648091e-04 1.66585119730082859e-01 2.13162789732900648e-01 1.66585119730082859e-01 2.13162789732900648e-01 1.92617542978722656e-04 4.05116488769364136e-04
3.57400000000000000e+10 2.04004917426008677e-03 5.23185836474941951e-04 2.24268099383729463e-01 1.49708089258056565e-01 2.24268099383729463e-01 1.49708089258056565e-01 -5.91232488129816210e-04 1.20978944677666575e-03
3.57500000000000000e+10 -8.06244439189289551e-04 -1.71394235643664906e-03 2.60343765819523121e-01 7.37421570718530955e-02 2.60343765819523121e-01 7.37421570718530955e-02 1.08458991779397445e-03 1.87182867635009992e-04
3.57600000000000000e+10 1.64130548440322361e-04 1.90953601551062694e-03 2.71504329292918400e-01 -1.06598491518468345e-02 2.71504329292918400e-01 -1.06598491518468345e-02 -6.37610135899468507e-05 6.80219348692126416e-04
3.57700000000000000e+10 -1.28533995606535078e-04 6.35419598427201262e-04 2.55276378222010436e-01 -9.36364470685978750e-02 2.55276378222010436e-01 -9.36364470685978750e-02 1.00752789877116148e-03 1.44594969303151068e-04
3.57800000000000000e+10 -7.22085729387765595e-04 -3.43450414861863694e-04 2.13219737797597175e-01 -1.67163565433237210e-01 2.13219737797597175e-01 -1.67163565433237210e-01 -3.71573741906232671e-04 -1.49693706600596968e-04
3.57900000000000000e+10 -7.37417076725118315e-04 -4.37152917026516360e-04 1.50634147874814633e-01 -2.24479096058689043e-01 1.50634147874814633e-01 -2.24479096058689043e-01 -8.08280825613824790e-04 -2.75488552310851082e-04
3.58000000000000000e+10 3.67476442637486387e-04 -1.37979367485861542e-03 7.41759219153575872e-02 -2.61550132309366856e-01 7.41759219153575872e-02 -2.61550132309366856e-01 -3.75915388775598786e-04 -5.42485533105056296e-04
3.58100000000000000e+10 7.03495519005148807e-04 1.28006247435778612e-03 -1.14064223105164019e-02 -2.69625469127500295e-01 -1.14064223105164019e-02 -2.69625469127500295e-01 3.00688093907294015e-04 -6.90696388000793578e-04
3.58200000000000000e+10 2.25235356617860955e-04 -3.07790775955619643e-04 -9.34915578460105701e-02 -2.52918983712488110e-01 -9.34915578460105701e-02 -2.52918983712488110e-01 -1.81633515737696074e-05 -3.14886372034793062e-04
3.58300000000000000e+10 5.69782303521631996e-04 1.02050298635550569e-03 -1.67174215560297657e-01 -2.11090126866668781e-01 -1.67174215560297657e-01 -2.11090126866668781e-01 -5.84394782830170820e-04 -1.50140694725825344e-03
3.58400000000000000e+10 6.28899206453740426e-04 2.55955883021207679e-04 -2.23737578424273331e-01 -1.50237434361966155e-01 -2.23737578424273331e-01 -1.50237434361966155e-01 -6.58979056564607023e-04 1.87471740089622949e-04
3.58500000000000000e+10 -1.59543931759287098e-03 -7.83947620241014264e-04 -2.59577657282642482e-01 -7.24801527171668736e-02 -2.59577657282642482e-01 -7.24801527171668736e-02 8.46272366488435538e-04 -5.62343568935499060e-04
3.58600000000000000e+10 -6.47889309153637277e-04 3.98280414948277007e-04 -2.68518294414687664e-01 1.14214287341127940e-02 -2.68518294414687664e-01 1.14214287341127940e-02 -4.02594979945673803e-04 2.61062042771476412e-04
3.58700000000000000e+10 1.05438943985133177e-03 8.83512719868680216e-04 -2.52436565496315213e-01 9.35723446893659272e-02 -2.52436565496315213e-01 9.35723446893659272e-02 1.00650250343146020e-03 1.18785999619616645e-03
3.58800000000000000e+10 6.96941148864875580e-05 -8.47320351668952895e-04 -2.10560685226162420e-01 1.67044301547752599e-01 -2.10560685226162420e-01 1.67044301547752599e-01 -3.33369297203026213e-04 1.12505500599612484e-03
3.58900000000000000e+10 7.28662187958903579e-04 6.14066282024874725e-04 -1.48986294225552929e-01 2.24065173982053861e-01 -1.48986294225552929e-01 2.24065173982053861e-01 1.13316452997096740e-04 1.40793760567046089e-04
3.59000000000000000e+10 3.17386322460830295e-04 3.31734236197689858e-04 -7.30106151237471662e-02 2.60335543934791858e-01 -7.30106151237471662e-02 2.60335543934791858e-01 9.42334191454226246e-04 -1.13066194757852241e-03
3.59100000000000000e+10 -6.27377660519600313e-04 -7.41590530694891223e-04 1.14428003609249197e-02 2.69650985077591610e-01 1.14428003609249197e-02 2.69650985077591610e-01 -1.61158390690497059e-03 2.99644485737898640e-04
3.59200000000000000e+10 8.24342317635671498e-04 -1.35631631084736596e-04 9.38710834378116560e-02 2.53106379605809617e-01 9.38710834378116560e-02 2.53106379605809617e-01 1.26847348755141113e-04 -2.30941475674863319e-04
3.59300000000000000e+10 -1.32082538900987881e-04 3.25386802647711145e-04 1.67803570582522876e-01 2.10585158176720383e-01 1.67803570582522876e-01 2.10585158176720383e-01 -8.18293685741827492e-05 1.54864235045693141e-04
3.59400000000000000e+10 1.04387571041379386e-03 3.66121969737876385e-04 2.25484633531275652e-01 1.49768194764568374e-01 2.25484633531275652e-01 1.49768194764568374e-01 -5.44605876742325530e-04 1.48892209987821822e-05
3.59500000000000000e+10 -1.42962170930230228e-03 -2.18586823311020349e-04 2.60852316839690401e-01 7.16628330728336371e-02 2.60852316839690401e-01 7.16628330728336371e-02 1.67064920769694186e-04 8.01135117077730018e-04
3.59600000000000000e+10 -3.09994067086592860e-04 4.76513540672773991e-04 2.69978633667089074e-01 -1.19982269114148627e-02 2.69978633667089074e-01 -1.19982269114148627e-02 -1.48752839836999119e-03 4.66882858388271657e-04
3.59700000000000000e+10 -3.59536624202763948e-04 4.98532814909349517e-04 2.53168309333991759e-01 -9.51001038623460748e-02 2.53168309333991759e-01 -9.51001038623460748e-02 -5.74063990385128274e-04 -6.05568290720672701e-04
3.59800000000000000e+10 -9.78123921564949799e-04 -2.41880373677815235e-04 2.10868425174086799e-01 -1.66924346710253385e-01 2.10868425174086799e-01 -1.66924346710253385e-01 -2.84038523754013663e-05 1.45714988743786324e-03
3.59900000000000000e+10 -3.99173767427327722e-05 9.62326817526384915e-04 1.49765002902560340e-01 -2.24301524706627925e-01 1.49765002902560340e-01 -2.24301524706627925e-01 3.99954842212807090e-04 -1.53384033115823865e-04
3.60000000000000000e+10 -1.94609281094327332e-04 -2.80172246794982373e-04 7.25096855189419354e-02 -2.60192204892799039e-01 7.25096855189419354e-02 -2.60192204892799039e-01 2.90156765319213999e-04 -3.16661405023577918e-04
3.60100000000000000e+10 1.00656949797973678e-03 -5.20271796853854812e-04 -1.10647871577067361e-02 -2.68482204049375395e-01 -1.10647871577067361e-02 -2.68482204049375395e-01 1.65683299889722970e-03 9.22859131900986059e-04
3.60200000000000000e+10 4.35142607926176212e-04 7.83031629704593378e-04 -9.44107105663367779e-02 -2.50895312691731542e-01 -9.44107105663367779e-02 -2.50895312691731542e-01 -8.23935446683266850e-05 3.07744267985937897e-04
3.60300000000000000e+10 -8.70920777794859189e-04 1.38768316123004387e-03 -1.68263183832255220e-01 -2.10288571479081671e-01 -1.68263183832255220e-01 -2.10288571479081671e-01 1.41908959108482492e-04 3.90172386250542554e-04
3.60400000000000000e+10 7.30737033347089704e-04 -1.45943736783139431e-04 -2.25041486638791977e-01 -1.48355058638949239e-01 -2.25041486638791977e-01 -1.48355058638949239e-01 -6.31698823972775734e-04 -6.43173237848606184e-04
3.60500000000000000e+10 5.08204485544216326e-04 6.21914762912418029e-06 -2.60084908150078953e-01 -7.21094216704971508e-02 -2.60084908150078953e-01 -7.21094216704971508e-02 1.52890186646167047e-03 2.64163891216222008e-04
3.60600000000000000e+10 1.04567135107337846e-03 4.85754552419629109e-04 -2.68597684743257570e-01 1.22897211025873865e-02 -2.68597684743257570e-01 1.22897211025873865e-02 -4.87770271524912852e-05 2.76116317122859843e-04
3.60700000000000000e+10 5.29485075805078662e-05 -1.54094686013744257e-04 -2.51697737468806360e-01 9.23104578011113702e-02 -2.51697737468806360e-01 9.23104578011113702e-02 -2.59934664482198887e-04 8.56448949182648167e-04
3.60800000000000000e+10 -2.99551935772571904e-04 -1.01456971587522769e-03 -2.11154163419053686e-01 1.68222582866776715e-01 -2.11154163419053686e-01 1.68222582866776715e-01 9.32507236129777469e-04 2.02443797320721693e-04
3.60900000000000000e+10 -4.68363480993532616e-04 2.48269452589136759e-04 -1.48222622070054988e-01 2.24677087203350223e-01 -1.48222622070054988e-01 2.24677087203350223e-01 1.38155899729191568e-03 4.94685764508433906e-04
3.61000000000000000e+10 8.42385614184954759e-05 6.67928354982608120e-04 -7.21318139679647807e-02 2.60461871319076499e-01 -7.21318139679647807e-02 2.60461871319076499e-01 4.04125666085546824e-04 -5.08328165293127116e-04
3.61100000000000000e+10 -7.20131642102647793e-04 5.48608579645026113e-04 1.22277811165963628e-02 2.67881598171216484e-01 1.22277811165963628e-02 2.67881598171216484e-01 1.43574931712797481e-04 9.94198102219431877e-04
3.61200000000000000e+10 -4.88148697409493209e-04 7.74186411353764586e-04 9.47487377078860687e-02 2.50401893392958819e-01 9.47487377078860687e-02 2.50401893392958819e-01 -7.17750195411469630e-05 8.72263692974527770e-04
3.61300000000000000e+10 3.83997219913841955e-05 4.18244445151662130e-04 1.67470292643952495e-01 2.09179472403347388e-01 1.67470292643952495e-01 2.09179472403347388e-01 -1.47026582164244706e-04 -6.21479291539103382e-04
3.61400000000000000e+10 -6.21947069646340751e-04 -4.18464844376483132e-04 2.26614446264333136e-01 1.49677895805012617e-01 2.26614446264333136e-01 1.49677895805012617e-01 1.98218269068274047e-03 -7.64377413084537825e-04
3.61500000000000000e+10 2.07615559310506076e-05 -1.75990611612929443e-03 2.59596933853546208e-01 7.14703778403285306e-02 2.59596933853546208e-01 7.14703778403285306e-02 -8.20976584874073795e-05 -1.57391113146018182e-03
3.61600000000000000e+10 -7.95621723207161628e-04 -6.02676822839403941e-04 2.68236271282805860e-01 -1.25393693802235955e-02 2.68236271282805860e-01 -1.25393693802235955e-02 2.25175864665929336e-03 2.69069671078583364e-04
3.61700000000000000e+10 1.14364031561659608e-04 -3.85422867629817503e-04 2.50028577413527020e-01 -9.43798946522872995e-02 2.50028577413527020e-01 -9.43798946522872995e-02 1.37894921487712854e-04 -1.34555180958181777e-03
3.61800000000000000e+10 -2.59428042562440609e-05 1.59409213065126392e-04 2.11103718835979587e-01 -1.66735325008715712e-01 2.11103718835979587e-01 -1.66735325008715712e-01 1.44068438877100261e-04 -3.68977234587596677e-04
3.61900000000000000e+10 -5.81865082465988994e-04 1.71842934623187829e-03 1.46891609076946678e-01 -2.24037651174124886e-01 1.46891609076946678e-01 -2.24037651174124886e-01 -8.04865734306426956e-04 -7.31073063276716493e-04
3.62000000000000000e+10 2.64534050750586593e-04 -2.53523985237915305e-04 6.98264897021810271e-02 -2.59925410270920865e-01 6.98264897021810271e-02 -2.59925410270920865e-01 -6.54272921090753704e-04 4.30305522372679476e-04
3.62100000000000000e+10 -2.77616403403668691e-05 -4.71250025475154202e-04 -1.16143240555322182e-02 -2.68872166712176064e-01 -1.16143240555322182e-02 -2.68872166712176064e-01 2.08698448190565498e-04 1.71746189648330614e-04
3.62200000000000000e+10 -1.69415470862931209e-04 9.50585669110059345e-04 -9.48163822061496159e-02 -2.49991786110834530e-01 -9.48163822061496159e-02 -2.49991786110834530e-01 6.66474987177537973e-04 -1.05099954423710520e-03
3.62300000000000000e+10 3.15057335005143298e-04 4.89743783976152392e-04 -1.67046598789125728e-01 -2.08677701435311003e-01 -1.67046598789125728e-01 -2.08677701435311003e-01 7.36603055370776928e-04 1.48851015977615755e-03
3.62400000000000000e+10 -7.85269466853533729e-05 1.07558250997548941e-03 -2.24909571900060529e-01 -1.46659574613164589e-01 -2.24909571900060529e-01 -1.46659574613164589e-01 3.79966994373334569e-05 -1.35986497896582276e-04
3.62500000000000000e+10 4.57892785721747484e-04 1.00903520169717025e-04 -2.58890433035489975e-01 -7.06917569234067900e-02 -2.58890433035489975e-01 -7.06917569234067900e-02 -7.96332787325164230e-04 -7.35073980507187094e-04
3.62600000000000000e+10 6.03725720071390803e-05 -2.09268066643495494e-04 -2.68044857450705165e-01 1.23492896214948775e-02 -2.68044857450705165e-01 1.23492896214948775e-02 2.42324204647038539e-05 -8.67354447996463362e-05
3.62700000000000000e+10 1.56377339350881106e-04 -2.73787713402466265e-05 -2.49917609520456302e-01 9.53287040833910304e-02 -2.49917609520456302e-01 9.53287040833910304e-02 -7.82364132621135230e-04 4.82477483922831313e-04
3.62800000000000000e+10 -1.26940740506437805e-03 -8.90958077891286482e-04 -2.08460069694812067e-01 1.68259992489259491e-01 -2.08460069694812067e-01 1.68259992489259491e-01 1.24159574599506717e-04 -1.17254320852393319e-04
3.62900000000000000e+10 -5.32726227848284262e-04 -1.54784482965343730e-04 -1.47621178923515312e-01 2.23961640009391588e-01 -1.47621178923515312e-01 2.23961640009391588e-01 -5.78848367401742464e-04 -4.35912928170782742e-04
3.63000000000000000e+10 8.54841392756490806e-04 -6.27572598883869865e-04 -7.06198431457031595e-02 2.58656638247186321e-01 -7.06198431457031595e-02 2.58656638247186321e-01 -1.90989995694212570e-04 -7.35425985508259363e-04
3.63100000000000000e+10 -1.08869956230409743e-03 4.84371889854979187e-04 1.28492392123184616e-02 2.66969233456125277e-01 1.28492392123184616e-02 2.66969233456125277e-01 1.67428220618569512e-04 6.63680308046235264e-04
3.63200000000000000e+10 8.47194075047755344e-04 -6.02332217333316185e-04 9.53219953955337929e-02 2.50300011332180494e-01 9.53219953955337929e-02 2.50300011332180494e-01 -7.39156558811999206e-04 -1.16154204622006597e-03
3.63300000000000000e+10 -1.29136420870990627e-03 -3.51826368194030944e-04 1.67786410814461856e-01 2.09275783646473368e-01 1.67786410814461856e-01 2.09275783646473368e-01 6.71825813707544188e-04 -3.98226121017102391e-05
3.63400000000000000e+10 -7.84969966587110643e-04 3.04627660163335899e-05 2.24346152077034816e-01 1.46453161305304891e-01 2.24346152077034816e-01 1.46453161305304891e-01 -8.34557361247417707e-04 -1.11848436986736882e-03
3.63500000000000000e+10 1.57420164721307470e-03 7.89850591603146607e-04 2.58020956989637673e-01 6.96978750970108085e-02 2.58020956989637673e-01 6.96978750970108085e-02 -8.74404485123276252e-04 -2.06540293446404340e-04
3.63600000000000000e+10 1.81745133538820222e-04 3.57706585327740006e-04 2.66497528735747224e-01 -1.24063945347045075e-02 2.66497528735747224e-01 -1.24063945347045075e-02 -9.12735559352882719e-04 2.09163722705502228e-03
3.63700000000000000e+10 2.40864473657640325e-07 3.92522017685303329e-04 2.51062373033533071e-01 -9.42786271285567662e-02 2.51062373033533071e-01 -9.42786271285567662e-02 -3.24775787148272310e-04 1.20670106782221585e-03
3.63800000000000000e+10 -3.99180661702197386e-04 5.65031824901859512e-04 2.07077748391686217e-01 -1.66258970596654426e-01 2.07077748391686217e-01 -1.66258970596654426e-01 6.01552523860019264e-04 -1.13334306060645668e-05
3.63900000000000000e+10 -1.22110324926511297e-04 -6.40125164501401936e-04 1.45724169544361681e-01 -2.24285553394464043e-01 1.45724169544361681e-01 -2.24285553394464043e-01 8.91479902369825923e-04 -7.39729655461398216e-04
3.64000000000000000e+10 -9.73022577270466708e-04 2.35628212474928102e-04 7.07633010932425116e-02 -2.58337765782383655e-01 7.07633010932425116e-02 -2.58337765782383655e-01 -6.52138943735041093e-04 -1.00014193542119858e-03
3.64100000000000000e+10 7.83150353940040831e-04 -8.08511430356979909e-04 -1.41492804005144586e-02 -2.68080231303326255e-01 -1.41492804005144586e-02 -2.68080231303326255e-01 -7.04997973998215590e-04 -4.87638462794719955e-04
3.64200000000000000e+10 3.34797728642397734e-04 4.14470305490008081e-04 -9.54396033061639115e-02 -2.50400110886305372e-01 -9.54396033061639115e-02 -2.50400110886305372e-01 5.92193520601275386e-04 -7.14205239344042724e-04
3.64300000000000000e+10 -4.57841411724730491e-04 4.06820557182850705e-04 -1.68182404666990110e-01 -2.08003840308396248e-01 -1.68182404666990110e-01 -2.08003840308396248e-01 2.44495599858035432e-04 5.95117537704405782e-04
3.64400000000000000e+10 -9.74618146059064595e-04 -1.91000846184340612e-03 -2.24386420539627096e-01 -1.46326992907385905e-01 -2.24386420539627096e-01 -1.46326992907385905e-01 -4.43900749784846571e-04 1.02180774024339239e-04
3.64500000000000000e+10 -8.10761545113910213e-05 -2.14353049196372507e-04 -2.58449673753991860e-01 -6.96836816717854995e-02 -2.58449673753991860e-01 -6.96836816717854995e-02 -3.73373342825893573e-04 -3.24361288888855336e-04
3.64600000000000000e+10 4.27487117639671667e-05 6.59801277028289096e-04 -2.68293965037802673e-01 1.47359867696826609e-02 -2.68293965037802673e-01 1.47359867696826609e-02 -4.54290815022132292e-04 1.58612488768307110e-03
3.64700000000000000e+10 -3.82543193178709574e-04 -6.80342188555214098e-04 -2.49424471209102133e-01 9.54222099292349468e-02 -2.49424471209102133e-01 9.54222099292349468e-02 -4.89851753061590757e-04 1.58205487124483957e-03
3.64800000000000000e+10 -5.44614735760068662e-04 2.69085568517718487e-04 -2.08974596724851136e-01 1.68904766652936300e-01 -2.08974596724851136e-01 1.68904766652936300e-01 7.44538413599381949e-05 3.54304277826275902e-05
3.64900000000000000e+10 -8.40652434923561359e-04 1.13418819783723895e-03 -1.45003596497318199e-01 2.24627793591384434e-01 -1.45003596497318199e-01 2.24627793591384434e-01 2.74854889938780269e-04 1.11109376192440926e-03
3.65000000000000000e+10 -9.97312920180450698e-04 -5.76799444919445597e-04 -6.94489031300392495e-02 2.58202113951506940e-01 -6.94489031300392495e-02 2.58202113951506940e-01 7.77582280206998416e-04 4.06335893021839926e-04
3.65100000000000000e+10 -2.35332680475398403e-04 -7.29352285125674216e-05 1.44464379592648181e-02 2.66213405507192524e-01 1.44464379592648181e-02 2.66213405507192524e-01 -4.15896867817035535e-04 2.39806075527564279e-04
3.65200000000000000e+10 2.84635446018890483e-04 -4.57733169192589345e-04 9.38259262378043774e-02 2.48085969406088902e-01 9.38259262378043774e-02 2.48085969406088902e-01 3.95007099130966518e-04 7.08181094180840320e-04
3.65300000000000000e+10 -1.35757768242282246e-03 -7.71786853361007942e-04 1.67340072415869762e-01 2.07893780522564686e-01 1.67340072415869762e-01 2.07893780522564686e-01 -2.12500924814408500e-04 9.47327017465775007e-04
3.65400000000000000e+10 6.71575754537284209e-04 7.11750647034920143e-04 2.23244185419932656e-01 1.44423334091069971e-01 2.23244185419932656e-01 1.44423334091069971e-01 2.46574231442619248e-04 -4.79369863003058986e-04
3.65500000000000000e+10 -2.96780635977105358e-04 1.89030870336820244e-04 2.59108821819590385e-01 6.98429857654436909e-02 2.59108821819590385e-01 6.98429857654436909e-02 -1.11027293353880814e-03 -1.29204155654505035e-03
3.65600000000000000e+10 1.55467257957233609e-03 -4.15823963245046666e-04 2.66309117659007999e-01 -1.45196278388462063e-02 2.66309117659007999e-01 -1.45196278388462063e-02 2.89715507281722068e-04 2.30472985364359347e-04
3.65700000000000000e+10 6.20110404422669667e-05 -7.10125562952747930e-04 2.48546508972726010e-01 -9.71281344044021278e-02 2.48546508972726010e-01 -9.71281344044021278e-02 -3.89420234764254418e-05 4.98400667208963072e-04
3.65800000000000000e+10 -3.39791976653689223e-04 8.59026888888866197e-04 2.07813926547785827e-01 -1.67446634912173264e-01 2.07813926547785827e-01 -1.67446634912173264e-01 8.47529785270030394e-04 -1.53216508938587256e-04
3.65900000000000000e+10 -3.70421208005375087e-04 2.02868429096827530e-03 1.45343992050742166e-01 -2.23176843694459864e-01 1.45343992050742166e-01 -2.23176843694459864e-01 4.53203942982001245e-04 1.25788232729230577e-04
3.66000000000000000e+10 -3.78234931469161430e-04 6.35285104782068195e-04 6.96363835363745520e-02 -2.59916044021991643e-01 6.96363835363745520e-02 -2.59916044021991643e-01 2.02609143450435474e-04 -6.94426062702476398e-04
3.66100000000000000e+10 -4.66373216453974714e-04 3.54954982223302466e-04 -1.42070289654313165e-02 -2.66693571725207079e-01 -1.42070289654313165e-02 -2.66693571725207079e-01 -1.21863525422770619e-03 3.27016424267787854e-04
3.66200000000000000e+10 -4.43788725740626477e-04 1.16544439591430102e-05 -9.47985625106993468e-02 -2.47993765923262027e-01 -9.47985625106993468e-02 -2.47993765923262027e-01 -7.88507840929405379e-05 -3.43263246371370309e-04
3.66300000000000000e+10 5.16283800247034115e-05 5.58325591989782314e-04 -1.68424137254148398e-01 -2.08567317265270391e-01 -1.68424137254148398e-01 -2.08567317265270391e-01 -6.62177321368999892e-04 5.30976564463580538e-04
3.66400000000000000e+10 -5.81693930639791239e-04 -5.41191754654873317e-04 -2.21998694421702891e-01 -1.44741072030697582e-01 -2.21998694421702891e-01 -1.44741072030697582e-01 -3.04812251589924792e-04 1.12980094201185289e-03
3.66500000000000000e+10 -9.71659994361458857e-05 -7.69518626251614762e-04 -2.57888191970489622e-01 -6.69743584995853014e-02 -2.57888191970489622e-01 -6.69743584995853014e-02 -5.38443287126400558e-04 4.73174800164519313e-04
3.66600000000000000e+10 -3.26324848882645941e-04 -3.43441377035486999e-05 -2.65328014596417305e-01 1.48225855320974678e-02 -2.65328014596417305e-01 1.48225855320974678e-02 -1.44147737263347468e-03 -1.51198298909152053e-04
3.66700000000000000e+10 -5.50585568694582556e-04 5.72083942812791520e-04 -2.47502489689156252e-01 9.57478905022542126e-02 -2.47502489689156252e-01 9.57478905022542126e-02 -7.60217988766846275e-04 -7.01252820165671679e-04
3.66800000000000000e+10 9.49990253226169583e-04 4.01323424903512744e-04 -2.06691245510890020e-01 1.68959799177307107e-01 -2.06691245510890020e-01 1.68959799177307107e-01 -1.31665627326782875e-03 -3.76888039952899307e-04
3.66900000000000000e+10 3.87830367168895038e-04 1.08283952856221260e-03 -1.45670585797401192e-01 2.23996195762186240e-01 -1.45670585797401192e-01 2.23996195762186240e-01 -4.55643792960110112e-06 -8.45341816522017422e-04
3.67000000000000000e+10 2.55847030114241631e-04 1.10075814551584923e-03 -6.78337618853017965e-02 2.57162191729523648e-01 -6.78337618853017965e-02 2.57162191729523648e-01 -2.88180299119230167e-04 1.43488429114855919e-04
3.67100000000000000e+10 7.94283958067901500e-04 -8.96229914549551122e-04 1.42932501346386513e-02 2.65411368980645324e-01 1.42932501346386513e-02 2.65411368980645324e-01 8.64746515203399695e-04 3.24282606935132425e-04
3.67200000000000000e+10 -6.12956482133952775e-04 2.39504008957640486e-04 9.62061756533702100e-02 2.48012765522327927e-01 9.62061756533702100e-02 2.48012765522327927e-01 -6.04825606923239663e-04 4.39136618899327734e-05
3.67300000000000000e+10 -8.11236259150551939e-04 -8.63020830950477779e-06 1.67541597754973542e-01 2.06108870663342131e-01 1.67541597754973542e-01 2.06108870663342131e-01 -1.19565396581727281e-03 -5.54637183917522822e-05
3.67400000000000000e+10 -1.26344048951936250e-04 1.61726462798513870e-04 2.22450913602004335e-01 1.43878418827832560e-01 2.22450913602004335e-01 1.43878418827832560e-01 1.79763925613489169e-04 -4.81371359736167798e-04
3.67500000000000000e+10 1.00204478655451998e-03 2.23584730205302263e-04 2.56946699225701514e-01 6.75906646705791841e-02 2.56946699225701514e-01 6.75906646705791841e-02 8.49326292669137046e-04 -5.83695637168590311e-04
3.67600000000000000e+10 -7.13218408853183352e-04 8.70540843984314344e-04 2.65257107185268182e-01 -1.54740216777964918e-02 2.65257107185268182e-01 -1.54740216777964918e-02 -3.45868188850057164e-04 -1.16815644580304644e-04
3.67700000000000000e+10 2.59458218432998423e-04 -1.87796545708426312e-04 2.49043577941092081e-01 -9.65931346430096566e-02 2.49043577941092081e-01 -9.65931346430096566e-02 -2.21899852851199070e-04 2.00946770076891167e-04
3.67800000000000000e+10 -6.22935255871516057e-04 5.81043056720895396e-04 2.06467250458769791e-01 -1.68405731480631149e-01 2.06467250458769791e-01 -1.68405731480631149e-01 1.33489401797699542e-03 -5.03682107299484598e-04
3.67900000000000000e+10 2.40106676001534801e-04 -5.30556795130772809e-04 1.44437504562587582e-01 -2.24092489193855382e-01 1.44437504562587582e-01 -2.24092489193855382e-01 5.84712858875762864e-04 -5.41159000051376696e-04
3.68000000000000000e+10 4.67207988436229378e-04 1.05140113150229450e-03 6.61755000350097433e-02 -2.56784700905504815e-01 6.61755000350097433e-02 -2.56784700905504815e-01 1.12280001458373350e-03 -7.42702105255296915e-04
3.68100000000000000e+10 1.70144831835072549e-03 6.01701625931014977e-04 -1.58992021785016036e-02 -2.65115576836235378e-01 -1.58992021785016036e-02 -2.65115576836235378e-01 -4.01540722975687111e-04 8.39864393710393234e-04
3.68200000000000000e+10 3.19788854366241649e-05 5.00572116489814557e-04 -9.66499079008460160e-02 -2.47217981171055451e-01 -9.66499079008460160e-02 -2.47217981171055451e-01 9.39282603506048301e-05 -4.93308046831620640e-04
3.68300000000000000e+10 4.14383425037039791e-04 9.54430274237521616e-04 -1.68329479408753480e-01 -2.05535058035041795e-01 -1.68329479408753480e-01 -2.05535058035041795e-01 7.59025464486771614e-04 -4.05830497217417611e-04
3.68400000000000000e+10 -6.62675078551456186e-04 -1.17327966613523481e-03 -2.22963674587642796e-01 -1.43547871574976726e-01 -2.22963674587642796e-01 -1.43547871574976726e-01 5.39110956357357544e-04 -5.76833889951847796e-04
3.68500000000000000e+10 3.47271398126769361e-04 1.42328766696184455e-04 -2.56331523958478413e-01 -6.81240758061268381e-02 -2.56331523958478413e-01 -6.81240758061268381e-02 2.56480106481856058e-04 4.01883504113191960e-04
3.68600000000000000e+10 -3.86344259047632032e-04 2.83359248496148052e-05 -2.65108693858399525e-01 1.49408575396841412e-02 -2.65108693858399525e-01 1.49408575396841412e-02 -9.25375086132477543e-04 1.85740862398778746e-05
3.68700000000000000e+10 1.12670575034241622e-03 -7.84734000889078130e-04 -2.48033369040648294e-01 9.66452500798274661e-02 -2.48033369040648294e-01 9.66452500798274661e-02 2.95939076664557840e-04 -4.81923798396538701e-04
3.68800000000000000e+10 -4.89558651736590657e-04 6.78192214941238406e-04 -2.04607765438254957e-01 1.67706909332588194e-01 -2.04607765438254957e-01 1.67706909332588194e-01 -3.03801134413950701e-04 3.70978407812621073e-04
3.68900000000000000e+10 1.67925532722853934e-03 -1.03385533907829298e-03 -1.42530956932912761e-01 2.22568553293813004e-01 -1.42530956932912761e-01 2.22568553293813004e-01 3.74126706831434978e-04 -1.75936482120723115e-03
3.69000000000000000e+10 -2.89934057963715634e-04 7.11774247392042269e-04 -6.73049477488838754e-02 2.56237135676391503e-01 -6.73049477488838754e-02 2.56237135676391503e-01 -6.75714404958532421e-04 -2.11463085228282037e-04
3.69100000000000000e+10 5.46008053500433204e-04 -4.17801262807760180e-04 1.50505841120014468e-02 2.64301948793685793e-01 1.50505841120014468e-02 2.64301948793685793e-01 3.29261653956755519e-04 -2.26782778520083820e-04
3.69200000000000000e+10 -3.83409189181301783e-04 4.67637677668423352e-04 9.68992659344690976e-02 2.46603683021675402e-01 9.68992659344690976e-02 2.46603683021675402e-01 -7.04998574221671597e-04 6.18530376637479399e-04
3.69300000000000000e+10 -5.08828906378439643e-06 3.56974717893386963e-04 1.67448871063895555e-01 2.05149921748827208e-01 1.67448871063895555e-01 2.05149921748827208e-01 4.66609567923781656e-06 9.13910043508450758e-05
3.69400000000000000e+10 -3.71356629803244319e-04 -5.87044140868198398e-04 2.22725144219033361e-01 1.43017079310112899e-01 2.22725144219033361e-01 1.43017079310112899e-01 -3.65985150660358091e-04 -1.84485900509429604e-04
3.69500000000000000e+10 2.80023000768916464e-04 -3.93268884065112894e-04 2.55388134329418093e-01 6.69939593779039916e-02 2.55388134329418093e-01 6.69939593779039916e-02 -3.90231637409919224e-04 4.10568767935555413e-04
3.69600000000000000e+10 -2.15281920153402887e-03 8.86119522235904468e-04 2.65506951982068806e-01 -1.63949807332116754e-02 2.65506951982068806e-01 -1.63949807332116754e-02 7.36735645599940559e-04 3.48208383319059447e-05
3.69700000000000000e+10 3.85731460199902813e-04 -1.48591190881773713e-04 2.46731867571139962e-01 -9.78905018365378854e-02 2.46731867571139962e-01 -9.78905018365378854e-02 -1.26647453777949077e-04 6.83809258210743868e-04
3.69800000000000000e+10 8.54099021321578058e-04 -1.99990039918967371e-04 2.04112126626610602e-01 -1.67803006459917831e-01 2.04112126626610602e-01 -1.67803006459917831e-01 -4.01915498900125615e-04 -3.56933136063376528e-04
3.69900000000000000e+10 -4.30507951144654360e-04 1.15003868854718057e-03 1.43099333345860974e-01 -2.23399900837630921e-01 1.43099333345860974e-01 -2.23399900837630921e-01 7.11859829080477492e-05 2.10355038988647828e-04
3.70000000000000000e+10 5.76237562378735437e-04 -8.43414742980360516e-04 6.66344646726638318e-02 -2.55732631281808342e-01 6.66344646726638318e-02 -2.55732631281808342e-01 1.48464674225720671e-03 3.40810213275283865e-04
3.70100000000000000e+10 -1.03488070242039286e-03 -4.75932515488203755e-04 -1.67240422666332031e-02 -2.64510077503074814e-01 -1.67240422666332031e-02 -2.64510077503074814e-01 -4.09532466018538478e-04 3.51468739025933348e-04
3.70200000000000000e+10 3.11933921699259257e-04 -1.51772774918959596e-03 -9.68866388887853203e-02 -2.46356581203008768e-01 -9.68866388887853203e-02 -2.46356581203008768e-01 4.90988365572905588e-05 7.10293168372408542e-04
3.70300000000000000e+10 8.96062306701184727e-05 -4.83396052646267477e-04 -1.68598527122852671e-01 -2.05758822703633965e-01 -1.68598527122852671e-01 -2.05758822703633965e-01 3.24723245089247414e-04 3.18947190929652060e-04
3.70400000000000000e+10 3.10261420412332920e-04 3.56428602404616692e-04 -2.21973694211130113e-01 -1.41895861830761832e-01 -2.21973694211130113e-01 -1.41895861830761832e-01 3.63209658088153387e-04 4.53303606670264108e-04
3.70500000000000000e+10 3.92963252118994923e-04 -2.43841880972848097e-04 -2.56591742635297326e-01 -6.51737045250467689e-02 -2.56591742635297326e-01 -6.51737045250467689e-02 1.56586857999220914e-04 1.20509436165289977e-03
3.70600000000000000e+10 -5.79203419493114105e-04 6.31613079412597861e-04 -2.63368235296643494e-01 1.60502210350031149e-02 -2.63368235296643494e-01 1.60502210350031149e-02 1.11498791264866867e-03 6.10946472602386169e-04
3.70700000000000000e+10 5.48513619592028547e-04 -5.95648697873514890e-04 -2.45561577135266468e-01 9.70990419987429881e-02 -2.45561577135266468e-01 9.70990419987429881e-02 -4.65070595047380501e-04 1.92746305958387437e-04
3.70800000000000000e+10 -1.44638586258579951e-04 3.39197907446208032e-04 -2.03216539704789617e-01 1.69176792345908933e-01 -2.03216539704789617e-01 1.69176792345908933e-01 3.68281314784935348e-04 -2.44009983315198907e-04
3.70900000000000000e+10 -7.50649265466777076e-04 1.41585969393486416e-04 -1.42132393490801479e-01 2.23301278054471281e-01 -1.42132393490801479e-01 2.23301278054471281e-01 -1.63810977784549635e-03 6.04667955864718787e-04
3.71000000000000000e+10 2.77771969945640469e-04 -8.38788872996228509e-04 -6.52996680158657999e-02 2.54995215607895453e-01 -6.52996680158657999e-02 2.54995215607895453e-01 -8.00200587003648423e-04 6.67829083417477020e-04
3.71100000000000000e+10 2.14232564365871410e-04 -1.93285040362874579e-05 1.60432653620939565e-02 2.63538261237316107e-01 1.60432653620939565e-02 2.63538261237316107e-01 -5.29331896920290606e-04 -2.41523557981158509e-04
3.71200000000000000e+10 9.67538537997065509e-04 5.13290350476837019e-04 9.77868890124354018e-02 2.45302676252594165e-01 9.77868890124354018e-02 2.45302676252594165e-01 -8.55717111671591983e-04 7.54590139895022403e-04
3.71300000000000000e+10 -4.23639126787163952e-04 2.09361159377723858e-04 1.68817237293296230e-01 2.02911869123485522e-01 1.68817237293296230e-01 2.02911869123485522e-01 8.28823976570637415e-04 1.39810472235254567e-04
3.71400000000000000e+10 -3.20146189006124114e-04 5.23973207594457201e-04 2.23108023042229930e-01 1.41317674875819949e-01 2.23108023042229930e-01 1.41317674875819949e-01 2.79758450624766140e-04 -3.21209858476802375e-04
3.71500000000000000e+10 -3.73344927491879586e-04 7.91539473080749771e-04 2.55158012521402855e-01 6.62387878516432216e-02 2.55158012521402855e-01 6.62387878516432216e-02 -2.02191983377015488e-05 -1.38363597008210430e-03
3.71600000000000000e+10 -7.65958547907057358e-04 -8.54556757247314463e-04 2.64597612000817217e-01 -1.63898784414501786e-02 2.64597612000817217e-01 -1.63898784414501786e-02 1.24811169459276453e-04 7.12661594519057966e-04
3.71700000000000000e+10 -8.25863167373248105e-04 -1.32592293733205832e-03 2.44418612000011637e-01 -9.82461129040981263e-02 2.44418612000011637e-01 -9.82461129040981263e-02 2.64704663179091116e-04 -1.40474210203105001e-04
3.71800000000000000e+10 3.93649778278501092e-04 -3.92824624793253001e-04 2.02151633944130577e-01 -1.68360165235722753e-01 2.02151633944130577e-01 -1.68360165235722753e-01 -2.64770851586843361e-04 3.79833448418434594e-04
3.71900000000000000e+10 1.89072779862043007e-04 -7.20759226840183859e-04 1.41631172904230662e-01 -2.23912010719456572e-01 1.41631172904230662e-01 -2.23912010719456572e-01 6.78753320416591085e-04 -2.17046924155881848e-04
3.72000000000000000e+10 -3.84939933178762069e-05 -1.06645937409554801e-03 6.35473622253278358e-02 -2.55006005957795490e-01 6.35473622253278358e-02 -2.55006005957795490e-01 -3.10819413580028453e-04 3.10942914593116768e-04
3.72100000000000000e+10 5.41228674696279033e-05 1.52998245505472317e-04 -1.74659137001984301e-02 -2.63103706184365627e-01 -1.74659137001984301e-02 -2.63103706184365627e-01 3.27199696043320605e-04 2.05902834236610234e-04
3.72200000000000000e+10 -1.26342171710640028e-04 7.81932839017218353e-05 -9.84969248280271603e-02 -2.45904649320392438e-01 -9.84969248280271603e-02 -2.45904649320392438e-01 -1.55271241518885068e-03 -3.98019039877071587e-04
3.72300000000000000e+10 -7.05614274312640877e-04 7.21831432386597048e-04 -1.69120945582403509e-01 -2.01632503843470756e-01 -1.69120945582403509e-01 -2.01632503843470756e-01 2.83719569685045325e-04 -4.26828379166125706e-06
3.72400000000000000e+10 3.68168542912229268e-04 5.07114445077667671e-04 -2.22217788787767545e-01 -1.39599388377716765e-01 -2.22217788787767545e-01 -1.39599388377716765e-01 -7.18299658935001766e-04 2.08851203251820942e-04
3.72500000000000000e+10 6.74046905073071587e-04 7.45979580110526694e-04 -2.55491461478387749e-01 -6.49817738507754011e-02 -2.55491461478387749e-01 -6.49817738507754011e-02 -8.11166705098433300e-04 1.33277483579600467e-04
3.72600000000000000e+10 5.14105909119233289e-04 -1.31510658370635031e-03 -2.62348567360931650e-01 1.77445861105035609e-02 -2.62348567360931650e-01 1.77445861105035609e-02 8.36452022448676822e-04 -6.18292981592448920e-04
3.72700000000000000e+10 -7.22419660809454542e-04 5.93829035424423089e-04 -2.45532056681722982e-01 9.78334392815231879e-02 -2.45532056681722982e-01 9.78334392815231879e-02 7.84750983000565244e-04 1.84029355345616534e-04
3.72800000000000000e+10 -7.48420505595286199e-04 1.08233817322831187e-03 -2.02408377226657499e-01 1.67011519488188653e-01 -2.02408377226657499e-01 1.67011519488188653e-01 1.16481792702879451e-03 3.86332051546390827e-04
3.72900000000000000e+10 -3.91105461156429331e-04 1.30834188978653501e-04 -1.40645718947010195e-01 2.23538703606576239e-01 -1.40645718947010195e-01 2.23538703606576239e-01 -1.30074140455081852e-04 -2.70027972727338939e-04
3.73000000000000000e+10 3.40155666320893614e-04 -1.66027440917828413e-04 -6.36467551123747477e-02 2.55002703645726858e-01 -6.36467551123747477e-02 2.55002703645726858e-01 -5.01885418741705247e-04 6.50153593435088824e-04
3.73100000000000000e+10 -5.62462194408424739e-05 5.67389984466772925e-04 1.78949338934805031e-02 2.62571833021673362e-01 1.78949338934805031e-02 2.62571833021673362e-01 4.30907069901309472e-04 7.17692199555993311e-05
3.73200000000000000e+10 1.43285830651298526e-04 8.76392722078300074e-04 9.76407469856364202e-02 2.45682811567196735e-01 9.76407469856364202e-02 2.45682811567196735e-01 5.89939847832725512e-04 -3.12480051006599135e-04
3.73300000000000000e+10 6.38896351885221255e-05 -4.54646478663581872e-04 1.68102731085667395e-01 2.01517403407105694e-01 1.68102731085667395e-01 2.01517403407105694e-01 -2.61112053443603306e-04 5.34744429265993602e-04
3.73400000000000000e+10 -6.13050488322008555e-04 -1.50429456469655903e-03 2.21750512669162819e-01 1.39107809013210376e-01 2.21750512669162819e-01 1.39107809013210376e-01 -4.42105714594217441e-04 -1.01295194011247550e-04
3.73500000000000000e+10 -1.17970980488855536e-04 2.58549232497545908e-04 2.55489054452981090e-01 6.46227576140635807e-02 2.55489054452981090e-01 6.46227576140635807e-02 -8.13509747760665148e-04 1.08631711167224984e-03
3.73600000000000000e+10 9.12766705596032633e-04 8.17907177573446711e-04 2.60408678671427030e-01 -1.78716219438156861e-02 2.60408678671427030e-01 -1.78716219438156861e-02 -6.05467630489042426e-04 1.02206986244325073e-03
3.73700000000000000e+10 9.77734176399172010e-06 -6.92831527816524734e-04 2.44780279804592715e-01 -9.93682142794004436e-02 2.44780279804592715e-01 -9.93682142794004436e-02 -8.65849340096390310e-04 -6.48299942594858362e-04
3.73800000000000000e+10 3.16763647106200834e-04 5.49898558130609383e-04 2.03432912057814858e-01 -1.68181360681558700e-01 2.03432912057814858e-01 -1.68181360681558700e-01 1.79479581923070136e-04 1.03464702481886528e-04
3.73900000000000000e+10 -5.21662471608776764e-04 1.99922483269051026e-03 1.39496859593815331e-01 -2.22417719234252770e-01 1.39496859593815331e-01 -2.22417719234252770e-01 2.52812641627131137e-04 -5.40196475876487470e-04
3.74000000000000000e+10 -9.06100259549153723e-04 1.01225008277528047e-03 6.35388400797569225e-02 -2.54899461430421470e-01 6.35388400797569225e-02 -2.54899461430421470e-01 -1.35266680844302610e-04 -6.50025937306589695e-04
3.74100000000000000e+10 -5.30624997265304130e-04 -3.14502514945836167e-04 -1.76432150927293835e-02 -2.62069289958014595e-01 -1.76432150927293835e-02 -2.62069289958014595e-01 4.24515042912770814e-04 2.35293583292194437e-04
3.74200000000000000e+10 4.93510922365096257e-04 -3.41359467956233072e-04 -9.68139388578953958e-02 -2.43831734499454167e-01 -9.68139388578953958e-02 -2.43831734499454167e-01 3.33541741343360151e-04 -1.15934420387942732e-03
3.74300000000000000e+10 -5.82366995526691994e-05 -1.10198088928324190e-03 -1.68968269877059041e-01 -2.00863845493835458e-01 -1.68968269877059041e-01 -2.00863845493835458e-01 -3.44466618134160494e-05 -5.58716832749610922e-04
3.74400000000000000e+10 -3.70777238747177116e-04 5.11596423540606787e-04 -2.21943820351575699e-01 -1.39207641669395144e-01 -2.21943820351575699e-01 -1.39207641669395144e-01 1.57062577364804122e-03 -4.33123635156316804e-04
3.74500000000000000e+10 -1.09245381287174497e-04 -2.91139045515693149e-04 -2.53940182707736217e-01 -6.48651005776683942e-02 -2.53940182707736217e-01 -6.48651005776683942e-02 1.95220205526328830e-04 6.79615438126010139e-04
3.74600000000000000e+10 -6.04488694125773708e-04 1.48515202396296090e-04 -2.61110110700219111e-01 1.80953382096217530e-02 -2.61110110700219111e-01 1.80953382096217530e-02 1.07973218623007641e-04 -7.22222735926773309e-04
3.74700000000000000e+10 -1.31062869829495581e-04 9.78075335464035039e-05 -2.43671751422950028e-01 9.89394328730457684e-02 -2.43671751422950028e-01 9.89394328730457684e-02 -8.49471080906891184e-04 3.93979300959246487e-04
3.74800000000000000e+10 1.22188159214663768e-04 7.65304425585279003e-04 -2.00542714599156235e-01 1.69082574817879971e-01 -2.00542714599156235e-01 1.69082574817879971e-01 8.89368009880447209e-05 7.41926794502319414e-05
3.74900000000000000e+10 -8.26412606864604360e-04 -1.56653507596472103e-04 -1.39972217242498753e-01 2.21431720850527813e-01 -1.39972217242498753e-01 2.21431720850527813e-01 1.93145530958986188e-03 -6.32506428396100622e-04
3.75000000000000000e+10 -2.26672411015743549e-04 4.03546701753541631e-04 -6.36219528673622747e-02 2.55123447957268934e-01 -6.36219528673622747e-02 2.55123447957268934e-01 7.65065353356662392e-04 -3.68470880774140553e-04
3.75100000000000000e+10 1.43425222782527184e-04 -1.80421508883262134e-04 1.88149876524978561e-02 2.61921494245045405e-01 1.88149876524978561e-02 2.61921494245045405e-01 -9.40958442287964810e-04 1.43146380437690439e-04
3.75200000000000000e+10 2.97308559398565752e-04 -2.45579846575118927e-04 9.92224281537285868e-02 2.42903690062005628e-01 9.92224281537285868e-02 2.42903690062005628e-01 7.79443586809112259e-04 3.88936459466298061e-04
3.75300000000000000e+10 -1.10473406201708224e-03 3.17470144796733016e-04 1.69328257171530300e-01 2.00704428155773468e-01 1.69328257171530300e-01 2.00704428155773468e-01 9.04667041018076851e-05 7.70064612886714895e-04
3.75400000000000000e+10 4.25399656396915091e-04 -1.74852843261691089e-03 2.22685315313840893e-01 1.39560386199796854e-01 2.22685315313840893e-01 1.39560386199796854e-01 3.86985873573030112e-04 -1.03671032029160589e-03
3.75500000000000000e+10 7.30444553784186275e-04 -1.29272628957275115e-04 2.54805574374052490e-01 6.28281437313799873e-02 2.54805574374052490e-01 6.28281437313799873e-02 -8.54000367998858758e-04 -2.04889559070626446e-04
3.75600000000000000e+10 8.66810059556071639e-04 -7.90190499886121939e-04 2.61627232620507244e-01 -1.89969366566810280e-02 2.61627232620507244e-01 -1.89969366566810280e-02 -1.26755379824545090e-03 -5.54027715357098874e-04
3.75700000000000000e+10 3.96196892991021649e-04 5.58828602926924787e-04 2.43856090793016789e-01 -9.95028464581851485e-02 2.43856090793016789e-01 -9.95028464581851485e-02 1.33088402666007292e-04 5.21256765362407021e-04
3.75800000000000000e+10 -2.55585336976495115e-04 -4.61101258056666316e-04 2.00582270068219271e-01 -1.68814171295044196e-01 2.00582270068219271e-01 -1.68814171295044196e-01 -5.27380210207855597e-06 6.14600313902057428e-04
3.75900000000000000e+10 -8.60770772818522732e-05 1.14957104946199662e-03 1.39848295502065123e-01 -2.22755934670838207e-01 1.39848295502065123e-01 -2.22755934670838207e-01 -2.23602482781775350e-04 -1.42724558240323648e-03
3.76000000000000000e+10 1.68635004784265961e-03 6.43078279398305651e-04 6.21293522631485157e-02 -2.54596276874612115e-01 6.21293522631485157e-02 -2.54596276874612115e-01 -7.50440971610145751e-04 7.84952493044309267e-04
3.76100000000000000e+10 8.78606127799801866e-04 7.88608793765421551e-04 -1.91961675963689994e-02 -2.60573921791471652e-01 -1.91961675963689994e-02 -2.60573921791471652e-01 1.18951851263568746e-03 3.49282674421008590e-04
3.76200000000000000e+10 -2.71834689739688744e-04 -3.37203145659053995e-04 -9.85771627722640403e-02 -2.42769793578787502e-01 -9.85771627722640403e-02 -2.42769793578787502e-01 -1.63253750617787494e-04 2.34391651848747993e-04
3.76300000000000000e+10 1.30283587610516608e-03 -1.74318006239194121e-03 -1.67743677507574157e-01 -1.99492085058471741e-01 -1.67743677507574157e-01 -1.99492085058471741e-01 2.25716417957389501e-04 -4.20542034811831301e-04
3.76400000000000000e+10 -1.96945273771495809e-04 4.83776782928097351e-04 -2.23995620668039991e-01 -1.38864322667602930e-01 -2.23995620668039991e-01 -1.38864322667602930e-01 2.55520902706160710e-04 -5.39342728782132787e-04
3.76500000000000000e+10 -5.59473000120103690e-04 -4.20783369175850141e-04 -2.53931973270321687e-01 -6.27749166689159366e-02 -2.53931973270321687e-01 -6.27749166689159366e-02 1.15535828373085586e-03 1.00632842393205669e-03
3.76600000000000000e+10 1.10829629915542281e-03 -5.54334310264327978e-04 -2.61209175741101418e-01 2.03078630664824122e-02 -2.61209175741101418e-01 2.03078630664824122e-02 3.53840115028234673e-04 1.56326147372194062e-03
3.76700000000000000e+10 -3.69505737460156371e-04 -4.92147559629453201e-04 -2.42907320720852860e-01 9.91738604328798318e-02 -2.42907320720852860e-01 9.91738604328798318e-02 -6.58257250968061420e-04 -5.53188807259544723e-04
3.76800000000000000e+10 6.61409375373013119e-04 -1.87285317420230027e-04 -2.00189036735297643e-01 1.67925009384506774e-01 -2.00189036735297643e-01 1.67925009384506774e-01 2.44668793064048754e-04 1.55571384755833278e-04
3.76900000000000000e+10 3.98011385000287599e-04 2.73634086071699928e-04 -1.36945345331108248e-01 2.22380549621579826e-01 -1.36945345331108248e-01 2.22380549621579826e-01 8.33553600183371433e-04 3.69042374827577540e-04
3.77000000000000000e+10 -3.93656908265429054e-04 -3.49411089818952453e-04 -6.11567331842463452e-02 2.53005156356780614e-01 -6.11567331842463452e-02 2.53005156356780614e-01 -1.00075117223131409e-03 3.68316914976866885e-04
3.77100000000000000e+10 -2.23744348902837941e-04 -8.80561533187863409e-04 1.87436660633885505e-02 2.60628980752110218e-01 1.87436660633885505e-02 2.60628980752110218e-01 -3.19065668067427817e-04 7.15542112951641530e-04
3.77200000000000000e+10 -3.06581190434338652e-04 7.40107245591104467e-04 9.92153095907619964e-02 2.42365718536162705e-01 9.92153095907619964e-02 2.42365718536162705e-01 1.78823559934419623e-04 6.67767345813141244e-04
3.77300000000000000e+10 -6.13206236811514663e-04 -1.12574799242364139e-03 1.70715751584115311e-01 1.99892355127967492e-01 1.70715751584115311e-01 1.99892355127967492e-01 5.48774107035404223e-04 1.24908735692263095e-04
3.77400000000000000e+10 7.87020293256184998e-04 3.07336521368888722e-04 2.21656243854193635e-01 1.37063812395707196e-01 2.21656243854193635e-01 1.37063812395707196e-01 -5.46970276121172384e-05 8.15915591278017688e-05
3.77500000000000000e+10 1.06881024647559339e-04 -6.09721695045272556e-04 2.53659950596532457e-01 6.13883836539611469e-02 2.53659950596532457e-01 6.13883836539611469e-02 6.82180303151622949e-04 -9.96186069770050014e-04
3.77600000000000000e+10 6.53447643725003024e-04 -4.43611086587170002e-04 2.61249791823828459e-01 -2.01853034217880888e-02 2.61249791823828459e-01 -2.01853034217880888e-02 -1.82341662910708485e-04 -9.06940393872529386e-04
3.77700000000000000e+10 6.16929323633237940e-04 5.56109687816654054e-04 2.40877706043152034e-01 -9.86402988020163990e-02 2.40877706043152034e-01 -9.86402988020163990e-02 -3.91876606468512495e-04 -7.31530480986588541e-04
3.77800000000000000e+10 -4.08574886126687579e-04 2.35746364578342887e-04 2.00243381276415916e-01 -1.69322442951253621e-01 2.00243381276415916e-01 -1.69322442951253621e-01 7.16442389563337503e-04 -6.37460466695914457e-05
3.77900000000000000e+10 -5.14592015509735527e-05 2.24912089723555372e-04 1.37862587215623694e-01 -2.21964248654568319e-01 1.37862587215623694e-01 -2.21964248654568319e-01 3.20620092587729614e-04 -5.88021440919052232e-04
3.78000000000000000e+10 -6.97409805905654673e-04 5.94354947147516838e-04 6.08729165681029874e-02 -2.53604521360894786e-01 6.08729165681029874e-02 -2.53604521360894786e-01 -2.29214197164874018e-04 -3.62471263829132050e-04
3.78100000000000000e+10 -7.84826048255568565e-04 -1.41685346795041695e-03 -1.91687963970123033e-02 -2.60761352907746602e-01 -1.91687963970123033e-02 -2.60761352907746602e-01 1.52555603771938508e-03 4.01802736064644931e-04
3.78200000000000000e+10 -1.71233692833725035e-04 2.80906202027439520e-04 -9.93805967122635137e-02 -2.40657586805161500e-01 -9.93805967122635137e-02 -2.40657586805161500e-01 -7.45569217194433191e-04 -8.42341760001648235e-04
3.78300000000000000e+10 7.75482014432026727e-04 -3.83053859478982014e-06 -1.69714633008642007e-01 -1.98218602731810412e-01 -1.69714633008642007e-01 -1.98218602731810412e-01 -1.48896005693060314e-04 -3.48821794607661543e-04
3.78400000000000000e+10 8.71775185407860161e-04 1.89295440728620994e-04 -2.21959639478249260e-01 -1.37698411089469508e-01 -2.21959639478249260e-01 -1.37698411089469508e-01 -7.60144669966755825e-04 -3.65944508503577724e-04
3.78500000000000000e+10 2.45783279129979399e-04 4.02621636880848494e-04 -2.53524495574653896e-01 -6.10976125046239632e-02 -2.53524495574653896e-01 -6.10976125046239632e-02 2.38886146099841754e-04 5.55256410853037204e-04
3.78600000000000000e+10 -2.25451438478212147e-04 1.57949472393967521e-03 -2.60274881725146678e-01 1.98334482941996890e-02 -2.60274881725146678e-01 1.98334482941996890e-02 5.84704435733766252e-04 -1.22388047402297305e-04
3.78700000000000000e+10 -5.51348879668040349e-04 1.67746468877186077e-03 -2.40779517184058961e-01 9.97042830682349224e-02 -2.40779517184058961e-01 9.97042830682349224e-02 -4.33391225704011075e-04 -3.63852126201381606e-04
3.78800000000000000e+10 3.38008806650256458e-04 2.97497027686326133e-04 -1.98100169659471859e-01 1.69037043333641668e-01 -1.98100169659471859e-01 1.69037043333641668e-01 -1.45726536023104514e-05 3.87328826265029259e-04
3.78900000000000000e+10 2.31266167101879281e-04 1.80521293524575741e-04 -1.36535378041138966e-01 2.22034790487014883e-01 -1.36535378041138966e-01 2.22034790487014883e-01 2.22221161894527361e-06 4.43387787817563466e-04
3.79000000000000000e+10 -4.83734102694019670e-04 5.73405640822970781e-04 -6.11154017125900562e-02 2.52930078512994705e-01 -6.11154017125900562e-02 2.52930078512994705e-01 1.03929071141972045e-03 -5.82326472243377088e-04
3.79100000000000000e+10 -1.02107156340579510e-04 8.64616028563110445e-04 1.90641619369134666e-02 2.58965484355523690e-01 1.90641619369134666e-02 2.58965484355523690e-01 9.11781519908660357e-04 4.51439868710519900e-04
3.79200000000000000e+10 -9.97931363628213990e-04 -1.25704420131104332e-04 9.96678054386289924e-02 2.41395686718496871e-01 9.96678054386289924e-02 2.41395686718496871e-01 -1.29621760309373652e-03 4.36997993070412528e-04
3.79300000000000000e+10 2.48296289405394027e-04 -1.31111231285663797e-04 1.70791573726591844e-01 1.98055072488445866e-01 1.70791573726591844e-01 1.98055072488445866e-01 3.28381446843225059e-04 -1.08256611563689901e-03
3.79400000000000000e+10 7.46004089937304005e-04 1.24144510487532683e-03 2.21868417601015722e-01 1.36679104669611196e-01 2.21868417601015722e-01 1.36679104669611196e-01 2.00489332019606454e-04 -6.36515265848852413e-04
3.79500000000000000e+10 -7.78828293010999298e-05 8.23401354389609644e-04 2.53912869725741841e-01 6.12759679783705796e-02 2.53912869725741841e-01 6.12759679783705796e-02 6.52625151834869324e-04 5.17740199339207399e-04
3.79600000000000000e+10 1.74940695618899073e-04 9.37337820569243197e-04 2.59027966077670091e-01 -1.84599517024082033e-02 2.59027966077670091e-01 -1.84599517024082033e-02 -1.00258003037064446e-03 -3.66566726181973752e-05
3.79700000000000000e+10 2.14142724683618653e-04 -2.23954086597145962e-04 2.40773053729260417e-01 -1.00178285215359181e-01 2.40773053729260417e-01 -1.00178285215359181e-01 -9.47879812397167654e-04 1.43700055245318922e-03
3.79800000000000000e+10 1.13017347587265942e-04 -6.50191704402454276e-04 1.97195384046139927e-01 -1.68466587875064716e-01 1.97195384046139927e-01 -1.68466587875064716e-01 -1.09660451438322237e-03 -5.47549611596046090e-04
3.79900000000000000e+10 -1.30505369066376818e-03 -2.89532564232080172e-04 1.35858315781944711e-01 -2.21182192804996458e-01 1.35858315781944711e-01 -2.21182192804996458e-01 7.26060883075086523e-04 -6.61791544576699172e-04
3.80000000000000000e+10 1.04980619791107763e-03 7.96557492876226740e-04 5.94373586384318656e-02 -2.53850601264205222e-01 5.94373586384318656e-02 -2.53850601264205222e-01 6.60754652145179597e-04 9.68559366527661325e-04
3.80100000000000000e+10 1.51876509959164991e-04 4.72454248782430719e-04 -2.07646732605985020e-02 -2.58054240899762255e-01 -2.07646732605985020e-02 -2.58054240899762255e-01 5.30787378595158491e-04 -5.25877172537480295e-04
3.80200000000000000e+10 -3.43401690271787714e-04 -3.40680379333435862e-04 -9.98201532794968233e-02 -2.40894420482882843e-01 -9.98201532794968233e-02 -2.40894420482882843e-01 9.80172171343292683e-05 8.43865597571439988e-05
3.80300000000000000e+10 7.65221241640134725e-05 -6.92122989331803314e-04 -1.69306149752070062e-01 -1.97490235603043934e-01 -1.69306149752070062e-01 -1.97490235603043934e-01 -2.44582844019065220e-04 1.28528778767209018e-04
3.80400000000000000e+10 6.92448881398663532e-06 -1.21043808513803561e-03 -2.20912160679111624e-01 -1.36219438727490122e-01 -2.20912160679111624e-01 -1.36219438727490122e-01 -1.22717637686374742e-03 -5.55007901790793672e-04
3.80500000000000000e+10 -3.74552390326701788e-04 -9.18009941242446518e-04 -2.52143126029112319e-01 -6.11800287120902106e-02 -2.52143126029112319e-01 -6.11800287120902106e-02 3.86694618347961194e-04 1.64334715270199262e-03
3.80600000000000000e+10 -4.87053534154781483e-04 -2.49152557667135007e-04 -2.58538250607601716e-01 2.00463949490613594e-02 -2.58538250607601716e-01 2.00463949490613594e-02 -7.24972506261297692e-04 -1.66438671738612784e-03
3.80700000000000000e+10 1.88965596282988159e-04 -5.21666083792254117e-04 -2.38878790067775043e-01 1.00228646325713017e-01 -2.38878790067775043e-01 1.00228646325713017e-01 -1.15661173846957270e-03 -4.45647990899487325e-04
3.80800000000000000e+10 2.82103092891554440e-04 -8.38679786833917409e-04 -1.96723754461389400e-01 1.69390689218381685e-01 -1.96723754461389400e-01 1.69390689218381685e-01 -7.99539664558545390e-04 1.70351119279532441e-04
3.80900000000000000e+10 3.21744675838511458e-04 -1.02016711970785842e-03 -1.35070547239109134e-01 2.20913049261950739e-01 -1.35070547239109134e-01 2.20913049261950739e-01 8.79377518306152426e-05 8.25568341018750613e-04
3.81000000000000000e+10 1.43548122100958483e-04 -7.09700766721017688e-04 -6.05056466884441660e-02 2.53633824002755526e-01 -6.05056466884441660e-02 2.53633824002755526e-01 -1.42656963044314418e-04 3.48964270737736702e-04
3.81100000000000000e+10 2.56770743359860561e-04 -4.81191584203102948e-04 2.17834537166576893e-02 2.58916607800059484e-01 2.17834537166576893e-02 2.58916607800059484e-01 5.63557871911043594e-04 -1.76650155672858187e-04
3.81200000000000000e+10 8.43957153548800950e-04 1.01971521546415027e-04 1.00319613654546738e-01 2.40232141320725207e-01 1.00319613654546738e-01 2.40232141320725207e-01 3.12466762455831015e-04 2.01958737732862450e-04
3.81300000000000000e+10 3.78588304811757609e-04 -2.42080929712915771e-04 1.70124657581740196e-01 1.96508633497480989e-01 1.70124657581740196e-01 1.96508633497480989e-01 -6.40496988707069939e-04 1.41251795581940330e-03
3.81400000000000000e+10 7.28280982948820822e-05 -1.74416081714851050e-04 2.22240791066398963e-01 1.33896092246803461e-01 2.22240791066398963e-01 1.33896092246803461e-01 1.04685558910520989e-03 3.43732190326555319e-04
3.81500000000000000e+10 9.31023589041058341e-04 -1.29431430578967583e-04 2.52312805274110263e-01 5.92453277526520730e-02 2.52312805274110263e-01 5.92453277526520730e-02 8.54114028952430461e-05 -3.20102097439759663e-04
3.81600000000000000e+10 8.38175420635931933e-04 -1.30832472254282096e-03 2.59357745436709919e-01 -2.09222024632285918e-02 2.59357745436709919e-01 -2.09222024632285918e-02 -1.23711966687353221e-04 4.45553441584207956e-04
3.81700000000000000e+10 6.21887572360974700e-05 -1.08432422574997905e-03 2.40001814059661617e-01 -9.95822290242970726e-02 2.40001814059661617e-01 -9.95822290242970726e-02 7.90389424035648348e-04 8.66509391144751145e-04
3.81800000000000000e+10 3.74997226932009819e-04 -5.67492388032712794e-04 1.96708121109798961e-01 -1.68892966871875466e-01 1.96708121109798961e-01 -1.68892966871875466e-01 9.75537265984729204e-04 1.01319920671377956e-03
3.81900000000000000e+10 6.84130767068607008e-04 2.55652109245520058e-04 1.33679032921398988e-01 -2.20328890650202724e-01 1.33679032921398988e-01 -2.20328890650202724e-01 -7.60101062302692633e-04 -5.15825981773021525e-04
3.82000000000000000e+10 -4.57363942891061308e-04 3.14959268166914094e-04 5.90944531598064024e-02 -2.51192299875482195e-01 5.90944531598064024e-02 -2.51192299875482195e-01 -8.76010311404119813e-04 7.78759315440697613e-04
3.82100000000000000e+10 4.65362443311159572e-04 -3.34042097757564790e-04 -2.16054343755807607e-02 -2.57500467800439503e-01 -2.16054343755807607e-02 -2.57500467800439503e-01 3.06089466284124664e-05 -3.33143239793193702e-04
3.82200000000000000e+10 1.32555560620569276e-04 5.60688870558612011e-04 -9.89181635697610057e-02 -2.39270962734397130e-01 -9.89181635697610057e-02 -2.39270962734397130e-01 -3.53615927527421942e-04 8.17320083967174537e-04
3.82300000000000000e+10 -6.21124066338366141e-04 -4.11610919864331432e-04 -1.69201795023170343e-01 -1.95388345229166815e-01 -1.69201795023170343e-01 -1.95388345229166815e-01 -1.01605580672861433e-03 -4.97477833180208156e-05
3.82400000000000000e+10 -1.16709328431701450e-03 7.56250344930412444e-04 -2.21868460452770366e-01 -1.34849451382535124e-01 -2.21868460452770366e-01 -1.34849451382535124e-01 9.11916825761437447e-04 6.00245357774366458e-04
3.82500000000000000e+10 1.08300230043479120e-03 2.06871289443508297e-04 -2.51866185942838661e-01 -6.08852225993056495e-02 -2.51866185942838661e-01 -6.08852225993056495e-02 2.08600169729481699e-05 -1.25087486448874829e-03
3.82600000000000000e+10 -5.37881821010801481e-04 4.18698958426396198e-04 -2.58059195575034594e-01 2.09756830231769276e-02 -2.58059195575034594e-01 2.09756830231769276e-02 2.49866295132376826e-04 1.84566001328381112e-04
3.82700000000000000e+10 7.33860016761631712e-04 -1.44765756784036195e-04 -2.37633163485038851e-01 9.93972577454617784e-02 -2.37633163485038851e-01 9.93972577454617784e-02 -3.54579197559626245e-05 1.58530988414579892e-03
3.82800000000000000e+10 -4.72215968160242031e-04 5.90685835652594513e-04 -1.96488618300705659e-01 1.69353381332348479e-01 -1.96488618300705659e-01 1.69353381332348479e-01 -8.35417494056727035e-04 -1.10395184512967603e-03
3.82900000000000000e+10 1.99392016878393002e-04 1.06979559106154315e-03 -1.34059221259382411e-01 2.22103777183653706e-01 -1.34059221259382411e-01 2.22103777183653706e-01 -1.53652468747327790e-04 4.34324440810506733e-04
3.83000000000000000e+10 3.37170099457309114e-04 4.54980259500879726e-04 -6.06204088674949446e-02 2.52644524231129319e-01 -6.06204088674949446e-02 2.52644524231129319e-01 -2.29594191695492743e-04 -1.39580965523602237e-03
3.83100000000000000e+10 1.94366405718809774e-04 5.60506675731580828e-04 2.11739019816725473e-02 2.57196950666445989e-01 2.11739019816725473e-02 2.57196950666445989e-01 -1.09266026728411874e-03 -4.41991573456170547e-04
3.83200000000000000e+10 4.72497126727693578e-05 5.91818013841983906e-04 1.00379113620203492e-01 2.38312738332589924e-01 1.00379113620203492e-01 2.38312738332589924e-01 -3.76553357475686542e-04 3.70155913213301578e-04
3.83300000000000000e+10 1.56550154836693689e-03 -5.70275857505280295e-04 1.67880678357058083e-01 1.95175393263637836e-01 1.67880678357058083e-01 1.95175393263637836e-01 -1.05220072700054059e-03 3.20722836775127985e-04
3.83400000000000000e+10 -7.00203742634618884e-04 3.39546456579009034e-05 2.22268950565623236e-01 1.33305996305315311e-01 2.22268950565623236e-01 1.33305996305315311e-01 -1.05248469568783830e-03 4.68163875189791417e-04
3.83500000000000000e+10 -5.35547702768035755e-04 -8.91405123428173018e-04 2.51087279515079920e-01 6.07825045649961482e-02 2.51087279515079920e-01 6.07825045649961482e-02 7.18085239403388857e-04 3.90588174321413459e-04
3.83600000000000000e+10 -5.06496942883759619e-04 -1.19574381767564462e-03 2.57585059302871733e-01 -2.14165251515805038e-02 2.57585059302871733e-01 -2.14165251515805038e-02 1.09785135796891726e-03 3.53061969775864335e-05
3.83700000000000000e+10 -2.00769658784423580e-04 -1.23629823590769273e-03 2.36612684148274910e-01 -1.01114170886013557e-01 2.36612684148274910e-01 -1.01114170886013557e-01 2.60633500192587155e-05 2.45697975548069582e-05
3.83800000000000000e+10 1.12627307706319535e-03 3.85280873289719941e-04 1.95196022321355578e-01 -1.68587670863990263e-01 1.95196022321355578e-01 -1.68587670863990263e-01 4.68239434832350425e-04 6.63854767114020273e-04
3.83900000000000000e+10 5.18597717281454049e-04 4.44174220488400520e-04 1.33583376384296265e-01 -2.21110196979858814e-01 1.33583376384296265e-01 -2.21110196979858814e-01 1.07857314168613243e-03 1.91288233433566004e-04
3.84000000000000000e+10 -6.02586791068535012e-04 -8.88525219737814676e-04 5.83657472827750906e-02 -2.51520303789737831e-01 5.83657472827750906e-02 -2.51520303789737831e-01 -4.40867342497933503e-04 -7.05175144272588935e-04
3.84100000000000000e+10 -2.63332638609002558e-04 -1.01038413485808783e-03 -2.06910062191010338e-02 -2.56474810987079971e-01 -2.06910062191010338e-02 -2.56474810987079971e-01 1.90732476646809901e-04 2.17727664624492375e-04
3.84200000000000000e+10 1.14018659149858390e-03 -1.74704120057553525e-04 -1.00649636475234658e-01 -2.37990321490305551e-01 -1.00649636475234658e-01 -2.37990321490305551e-01 6.06155200704734881e-04 1.29014336767291197e-03
3.84300000000000000e+10 -5.10481196549517134e-04 1.02801561318611209e-03 -1.69962498360457903e-01 -1.94798634697891021e-01 -1.69962498360457903e-01 -1.94798634697891021e-01 -7.57550347509033440e-04 1.38143725784819560e-03
3.84400000000000000e+10 1.06289049241161727e-03 -1.14211719940541167e-03 -2.21891426717629903e-01 -1.33504595455765318e-01 -2.21891426717629903e-01 -1.33504595455765318e-01 -1.46842483602409725e-03 5.25279905998025541e-04
3.84500000000000000e+10 -7.66216757457854913e-04 -1.14982886385608745e-03 -2.49513431310004558e-01 -5.86153142081487222e-02 -2.49513431310004558e-01 -5.86153142081487222e-02 6.40785335505031036e-04 -5.01753662289712837e-04
3.84600000000000000e+10 -9.23885740354753898e-04 1.49808189962679538e-04 -2.55977711339720415e-01 2.27560225335761944e-02 -2.55977711339720415e-01 2.27560225335761944e-02 -4.61100464828430128e-04 -8.86478726258252300e-05
3.84700000000000000e+10 -6.26944877793515223e-04 1.50754957301970483e-04 -2.38970170653506897e-01 1.00667281205256337e-01 -2.38970170653506897e-01 1.00667281205256337e-01 3.47187931786929022e-04 5.78484555642254416e-05
3.84800000000000000e+10 -7.37790324832284655e-04 -6.83832898004849620e-04 -1.92709762433991738e-01 1.68522701477556131e-01 -1.92709762433991738e-01 1.68522701477556131e-01 1.38983421646579452e-05 -1.29141636601599755e-03
3.84900000000000000e+10 -5.71074478998914834e-04 3.08490751320953933e-04 -1.32341841735799132e-01 2.20187447037667600e-01 -1.32341841735799132e-01 2.20187447037667600e-01 -2.81847087625827872e-04 3.36044445577430120e-04
3.85000000000000000e+10 -3.64871743605470829e-05 -1.29452630235380383e-04 -5.80816885273691338e-02 2.50829899495400688e-01 -5.80816885273691338e-02 2.50829899495400688e-01 4.96649364704015734e-04 -6.61525985015674650e-04
3.85100000000000000e+10 3.32762440698342195e-04 -8.49880164168076825e-04 2.26544983228887907e-02 2.56929797487039369e-01 2.26544983228887907e-02 2.56929797487039369e-01 -1.31895553670169602e-03 -8.70091803352044529e-04
3.85200000000000000e+10 5.47934202492277749e-04 -1.22807054665004267e-03 1.01203387156634919e-01 2.38457601329940427e-01 1.01203387156634919e-01 2.38457601329940427e-01 -1.80172249738891951e-03 5.86039977406000541e-04
3.85300000000000000e+10 -5.22767740521108996e-04 -1.13194384498308486e-03 1.68658793806103546e-01 1.94581532193287055e-01 1.68658793806103546e-01 1.94581532193287055e-01 -1.78363905940266123e-04 5.81199943041694990e-04
3.85400000000000000e+10 4.33655073974135812e-04 -1.64966058082764109e-04 2.21328412525803125e-01 1.32438546961541254e-01 2.21328412525803125e-01 1.32438546961541254e-01 -5.85986397710614153e-04 8.13909652790474504e-06
3.85500000000000000e+10 -2.16775449175712491e-04 -6.01643464798322890e-04 2.51042308919411428e-01 5.75846830453599634e-02 2.51042308919411428e-01 5.75846830453599634e-02 3.74479130701433824e-04 -3.15077062430503725e-04
3.85600000000000000e+10 1.05578923830855183e-03 -9.55903879830212293e-04 2.58153912372464212e-01 -2.39580869129564986e-02 2.58153912372464212e-01 -2.39580869129564986e-02 4.53113140366926737e-04 -1.58397660814756113e-04
3.85700000000000000e+10 8.60005689025053894e-05 2.42425860423448552e-04 2.36093753432635028e-01 -1.01998843539352513e-01 2.36093753432635028e-01 -1.01998843539352513e-01 9.65029219781495798e-04 -4.35125205526025891e-05
3.85800000000000000e+10 -1.96249818692642472e-04 1.19297939975981210e-03 1.94829102432090950e-01 -1.68381803685738046e-01 1.94829102432090950e-01 -1.68381803685738046e-01 8.86995471448452991e-04 -1.29390871496056761e-03
3.85900000000000000e+10 -1.20494184095633274e-03 -2.34255277143186763e-04 1.31869349462851698e-01 -2.20366236542272692e-01 1.31869349462851698e-01 -2.20366236542272692e-01 2.48149724545849870e-05 1.79089795345100007e-04
3.86000000000000000e+10 1.61560037780442313e-04 6.94415869406621238e-06 5.73535120270409135e-02 -2.51070111637178683e-01 5.73535120270409135e-02 -2.51070111637178683e-01 2.72915789622067641e-04 -6.79420185492359235e-04
3.86100000000000000e+10 -1.29245806932711069e-03 1.03354976534300865e-04 -2.26405478232923237e-02 -2.56083619755653136e-01 -2.26405478232923237e-02 -2.56083619755653136e-01 2.20270349731945041e-04 1.59888981621750117e-05
3.86200000000000000e+10 -2.33025841534249443e-04 -4.24379628411445612e-04 -1.01144209072357064e-01 -2.34981328779630766e-01 -1.01144209072357064e-01 -2.34981328779630766e-01 -9.44911267695752711e-04 7.23421617829275287e-04
3.86300000000000000e+10 9.25922163487836038e-04 -5.67945903608279494e-04 -1.68781041092207457e-01 -1.93269840131327142e-01 -1.68781041092207457e-01 -1.93269840131327142e-01 2.92912525205100137e-05 -1.83066645174930880e-04
3.86400000000000000e+10 -7.03856020753546984e-05 5.81738728566725443e-04 -2.19311568717425492e-01 -1.32129811849083845e-01 -2.19311568717425492e-01 -1.32129811849083845e-01 6.16471770733538461e-04 -2.51739534491611083e-04
3.86500000000000000e+10 2.31265997779253428e-04 7.45810070613140948e-05 -2.50834830692921729e-01 -5.74458393092284539e-02 -2.50834830692921729e-01 -5.74458393092284539e-02 -5.88373366368239185e-05 -1.70230822622271471e-05
3.86600000000000000e+10 8.39063495177835096e-05 -6.98068614166951710e-04 -2.56753083169996843e-01 2.39076207293679871e-02 -2.56753083169996843e-01 2.39076207293679871e-02 -1.63947755574799295e-04 -6.96040751011623533e-04
3.86700000000000000e+10 3.77490956608722051e-04 4.38908529172620334e-05 -2.36346532119124986e-01 1.01524912013618532e-01 -2.36346532119124986e-01 1.01524912013618532e-01 6.24795358290184160e-06 -5.65473216185864822e-04
3.86800000000000000e+10 2.51036730907758959e-04 5.42917129720754720e-04 -1.94141019703587020e-01 1.68551668185323300e-01 -1.94141019703587020e-01 1.68551668185323300e-01 7.69542440304263331e-04 7.05274963939547524e-04
3.86900000000000000e+10 -5.31762346616817356e-04 5.94608446147881602e-04 -1.30764840372393304e-01 2.21438065081678348e-01 -1.30764840372393304e-01 2.21438065081678348e-01 -3.47077473166299095e-05 -3.52692162479177835e-04
3.87000000000000000e+10 2.17277383500886551e-04 -6.10547154970598224e-04 -5.74478985042189208e-02 2.49687488210564607e-01 -5.74478985042189208e-02 2.49687488210564607e-01 -5.54257923341901584e-04 -1.61915656600991755e-04
3.87100000000000000e+10 9.69373757924888585e-04 -6.63314387979804451e-04 2.33312052209144576e-02 2.57907908458191948e-01 2.33312052209144576e-02 2.57907908458191948e-01 -5.75656920661298194e-04 5.21222418309235888e-04
3.87200000000000000e+10 -1.46511620170038364e-04 -4.22206417925835204e-05 1.01077047390674357e-01 2.36508319118856614e-01 1.01077047390674357e-01 2.36508319118856614e-01 -5.75203710207844484e-06 1.60449680922027240e-04
3.87300000000000000e+10 3.58299901934104788e-04 -6.60166573767556370e-04 1.69013619878265881e-01 1.92989118875973864e-01 1.69013619878265881e-01 1.92989118875973864e-01 1.12700357713315801e-03 1.08608373892136512e-03
3.87400000000000000e+10 6.27000098799024037e-04 1.11659623063341775e-04 2.19594131322209035e-01 1.31232143247819094e-01 2.19594131322209035e-01 1.31232143247819094e-01 -6.33292617125261626e-04 -7.81066312997603603e-04
3.87500000000000000e+10 -9.43889584908837241e-04 -1.66893102390150969e-03 2.49929510064857030e-01 5.69438566553639655e-02 2.49929510064857030e-01 5.69438566553639655e-02 -5.45222731009467089e-04 -6.40144606033269076e-04
3.87600000000000000e+10 9.38418707148099625e-04 -5.26169739558347989e-04 2.55830608170796558e-01 -2.40873815403733343e-02 2.55830608170796558e-01 -2.40873815403733343e-02 1.24059982615617949e-03 4.42941876413172259e-04
3.87700000000000000e+10 -3.62958842864457730e-04 1.69128660097155265e-03 2.34582143828504591e-01 -1.00998194338404151e-01 2.34582143828504591e-01 -1.00998194338404151e-01 9.81673457393225581e-05 7.24542414495341617e-05
3.87800000000000000e+10 1.11981309496419199e-03 -1.93614886051962561e-04 1.92065682779090474e-01 -1.68944647152363792e-01 1.92065682779090474e-01 -1.68944647152363792e-01 -7.93986011306131484e-04 4.27703123053274690e-04
3.87900000000000000e+10 4.95989836232120398e-04 7.32899086145801773e-05 1.30779187096611266e-01 -2.20549325462661649e-01 1.30779187096611266e-01 -2.20549325462661649e-01 3.05297794633677545e-04 8.09610125069665991e-05
3.88000000000000000e+10 -9.57248281387048055e-04 5.54933491514114532e-04 5.60916543078715107e-02 -2.51291145654958747e-01 5.60916543078715107e-02 -2.51291145654958747e-01 3.94759452291586026e-04 1.03016274163588104e-04
3.88100000000000000e+10 4.24561038023709293e-04 -1.52226395369936161e-04 -2.34127055264268698e-02 -2.54986730616624968e-01 -2.34127055264268698e-02 -2.54986730616624968e-01 6.14336130848251011e-04 -4.47556589181842090e-04
3.88200000000000000e+10 -3.01672710081573572e-04 3.83625829852809029e-05 -1.02200140220422578e-01 -2.35497816592599024e-01 -1.02200140220422578e-01 -2.35497816592599024e-01 -1.76221804760588719e-03 3.25016994715510718e-04
3.88300000000000000e+10 -5.08870705967395462e-04 6.83950808122024494e-04 -1.69268570421292869e-01 -1.92126027594293508e-01 -1.69268570421292869e-01 -1.92126027594293508e-01 8.03817016985724993e-05 1.73431831394568438e-04
3.88400000000000000e+10 -2.12907770813635217e-05 -1.21427683526193343e-03 -2.20614327689457101e-01 -1.31865423461820286e-01 -2.20614327689457101e-01 -1.31865423461820286e-01 -1.01937802124858604e-03 -4.27755845210331343e-04
3.88500000000000000e+10 1.20052231178505186e-03 -5.59278802675890890e-04 -2.49416774961324472e-01 -5.76318403132526705e-02 -2.49416774961324472e-01 -5.76318403132526705e-02 1.69203543444949075e-04 -7.89257164586811406e-05
3.88600000000000000e+10 -1.79434877912226575e-04 -9.23431889983801013e-04 -2.55144942041720502e-01 2.39628290083371207e-02 -2.55144942041720502e-01 2.39628290083371207e-02 8.41107280579185871e-04 -1.23274556169742353e-03
3.88700000000000000e+10 -5.85510903194324910e-04 7.70687646860598332e-04 -2.34955815977324206e-01 1.01563447617169580e-01 -2.34955815977324206e-01 1.01563447617169580e-01 -1.65191236457838876e-04 7.19727148906995000e-04
3.88800000000000000e+10 -9.54074848039198394e-04 2.03670055820157981e-03 -1.92697627932109206e-01 1.70519401637293455e-01 -1.92697627932109206e-01 1.70519401637293455e-01 -7.63902661897498080e-04 -1.12501294501001095e-06
3.88900000000000000e+10 1.80947843145703253e-04 7.36744149216029512e-04 -1.30241133408122906e-01 2.20549548783497584e-01 -1.30241133408122906e-01 2.20549548783497584e-01 -1.25549297280386826e-03 1.34766294411589838e-04
3.89000000000000000e+10 4.12289418662034303e-05 -7.15606728853434345e-04 -5.62317580936222416e-02 2.48851709642137597e-01 -5.62317580936222416e-02 2.48851709642137597e-01 5.68396020680577379e-05 -1.21665563677865007e-03
3.89100000000000000e+10 -1.29132311728202506e-04 1.56697234392272214e-03 2.51418651096662338e-02 2.55339989594248751e-01 2.51418651096662338e-02 2.55339989594248751e-01 5.66217938148972071e-04 -3.41883196519398918e-04
3.89200000000000000e+10 1.99845757566673301e-04 2.21959930491522002e-04 1.01308675222989128e-01 2.35552481969587391e-01 1.01308675222989128e-01 2.35552481969587391e-01 1.65320307500755183e-03 2.56583170931023682e-04
3.89300000000000000e+10 6.74389391322011210e-04 7.87009096849900359e-04 1.69464015440442206e-01 1.90917356689151912e-01 1.69464015440442206e-01 1.90917356689151912e-01 1.82077309576534951e-04 -1.71235293082414345e-04
3.89400000000000000e+10 2.29483744769983774e-04 -2.34146233948766004e-04 2.21163813260772280e-01 1.30191049224779254e-01 2.21163813260772280e-01 1.30191049224779254e-01 7.40848504790891926e-04 1.74823884090041277e-04
3.89500000000000000e+10 5.24872448701955378e-04 -2.72121294396103800e-04 2.50958457128055645e-01 5.65831107789727880e-02 2.50958457128055645e-01 5.65831107789727880e-02 6.10270029891356287e-05 6.02158329587792487e-04
3.89600000000000000e+10 -7.04866185214168286e-04 -2.90127959796194828e-04 2.54531798411292864e-01 -2.50808646496835617e-02 2.54531798411292864e-01 -2.50808646496835617e-02 -7.75915434858701959e-05 1.26529839443736687e-03
3.89700000000000000e+10 -4.06541090578347295e-04 1.09324171565806081e-03 2.33284038314006348e-01 -1.03441605926341107e-01 2.33284038314006348e-01 -1.03441605926341107e-01 7.42578496557395277e-04 -3.67067353871957779e-04
3.89800000000000000e+10 8.07593029477534567e-04 -2.93564759597489573e-04 1.90772375967101393e-01 -1.69968939165934918e-01 1.90772375967101393e-01 -1.69968939165934918e-01 4.10332165196941536e-04 -8.90795757946274318e-04
3.89900000000000000e+10 -2.45548497095387749e-04 -2.94087156373334100e-04 1.29495654210843164e-01 -2.18951989891798399e-01 1.29495654210843164e-01 -2.18951989891798399e-01 1.55687673366843938e-03 -3.25762157622152312e-04
3.90000000000000000e+10 1.51215722147989961e-03 4.26736764759045846e-04 5.53048392574333955e-02 -2.50629116717583644e-01 5.53048392574333955e-02 -2.50629116717583644e-01 -1.98284473250103996e-04 1.00084871624244484e-03
3.90100000000000000e+10 1.64047540535307225e-04 -9.84767891030098553e-04 -2.38348968175320468e-02 -2.53881026273984289e-01 -2.38348968175320468e-02 -2.53881026273984289e-01 -8.19545179661507759e-04 1.55180366180682959e-04
3.90200000000000000e+10 1.85954665376847318e-04 -8.36809860764210333e-04 -1.01257026845034528e-01 -2.33151817932206906e-01 -1.01257026845034528e-01 -2.33151817932206906e-01 1.43348237862169127e-04 -1.72646378539282832e-04
3.90300000000000000e+10 2.68351227808064302e-04 -2.85550346342126882e-04 -1.70525361561957856e-01 -1.90186699637670736e-01 -1.70525361561957856e-01 -1.90186699637670736e-01 7.17037921331256092e-04 -8.07195396180225859e-05
3.90400000000000000e+10 -5.36142631327576782e-04 -9.40958489918389696e-04 -2.21448350763230439e-01 -1.29137144413752070e-01 -2.21448350763230439e-01 -1.29137144413752070e-01 -1.49806755594866455e-03 2.29599534507701536e-04
3.90500000000000000e+10 -2.35624958183433238e-04 2.82677357885807311e-04 -2.49113890609995087e-01 -5.38634710573075368e-02 -2.49113890609995087e-01 -5.38634710573075368e-02 -1.83910482877338856e-04 1.01007789571473894e-04
3.90600000000000000e+10 1.22118789289847119e-03 3.84241503063362624e-04 -2.54467916844238418e-01 2.49241285779847610e-02 -2.54467916844238418e-01 2.49241285779847610e-02 -1.18555406030346005e-03 1.41376438220142402e-03
3.90700000000000000e+10 -9.16984732838043858e-04 -2.13923322864795451e-04 -2.32816460261119629e-01 1.01713887335864589e-01 -2.32816460261119629e-01 1.01713887335864589e-01 1.59634146709596676e-06 3.76735932525651212e-04
3.90800000000000000e+10 -2.26533818423450675e-05 -1.06055143532856336e-04 -1.90441755899244142e-01 1.70495503220697925e-01 -1.90441755899244142e-01 1.70495503220697925e-01 -4.11063548953095848e-04 1.19890548453054687e-03
3.90900000000000000e+10 2.15074158946545265e-04 6.71935861394857377e-04 -1.29945820568516807e-01 2.19432272054174510e-01 -1.29945820568516807e-01 2.19432272054174510e-01 -1.59365238517058692e-03 -9.15797492009701414e-04
3.91000000000000000e+10 -2.71766175519672960e-04 5.46264505743831010e-04 -5.33266262343185665e-02 2.49194926133042394e-01 -5.33266262343185665e-02 2.49194926133042394e-01 -1.27757389450884617e-04 1.12433585425061319e-04
3.91100000000000000e+10 7.45041632699177335e-04 -1.27012378777983882e-04 2.29107209364416038e-02 2.54365301769696850e-01 2.29107209364416038e-02 2.54365301769696850e-01 -1.22650089564626955e-04 9.36026971701004205e-05
3.91200000000000000e+10 1.05149521844334474e-03 -4.05630547459713716e-04 1.02698969053063555e-01 2.34083012118718709e-01 1.02698969053063555e-01 2.34083012118718709e-01 -1.25128247002748963e-03 -5.57146186091823708e-04
3.91300000000000000e+10 -9.57618295393644148e-04 -2.22053068608783636e-04 1.68887553847499094e-01 1.89851866403272146e-01 1.68887553847499094e-01 1.89851866403272146e-01 -9.38404465553440196e-04 -1.65889458310159094e-04
3.91400000000000000e+10 3.97913521364964503e-04 -6.77442134127957110e-04 2.19888519833443347e-01 1.28056484607631638e-01 2.19888519833443347e-01 1.28056484607631638e-01 7.25591368010937519e-04 -2.98800394359716160e-04
3.91500000000000000e+10 1.25110373378115047e-04 -2.23645879516747915e-04 2.48355929102965473e-01 5.44940384510615161e-02 2.48355929102965473e-01 5.44940384510615161e-02 -1.70675183111513760e-04 -7.76760534141717439e-04
3.91600000000000000e+10 -7.09406650040904883e-04 1.19511276843109311e-04 2.54164513663925618e-01 -2.46016621900324479e-02 2.54164513663925618e-01 -2.46016621900324479e-02 -1.40101216358157768e-04 -7.95275483677124412e-04
3.91700000000000000e+10 -9.62102144636190230e-04 -1.35515320560520756e-03 2.32562327557613163e-01 -1.02506154193527779e-01 2.32562327557613163e-01 -1.02506154193527779e-01 -3.80322889245419049e-04 4.57707190259728396e-05
3.91800000000000000e+10 -5.75571363926243398e-04 -5.36240541773094922e-04 1.91220885526212414e-01 -1.69769317860270219e-01 1.91220885526212414e-01 -1.69769317860270219e-01 -5.05913059222178681e-04 6.37889017457229880e-04
3.91900000000000000e+10 -3.55236678333663910e-04 -5.03250586505296486e-04 1.29719741187137388e-01 -2.19951701238739833e-01 1.29719741187137388e-01 -2.19951701238739833e-01 6.01681111361619106e-04 1.09063505736199488e-03
3.92000000000000000e+10 5.45483915746866502e-04 6.93356542544853858e-05 5.48543615943384577e-02 -2.48240684688216501e-01 5.48543615943384577e-02 -2.48240684688216501e-01 -6.48218546648034123e-04 3.19641939677980133e-04
3.92100000000000000e+10 -1.99941611918925201e-04 -1.02954112186456827e-03 -2.68428760390274461e-02 -2.53746454803222166e-01 -2.68428760390274461e-02 -2.53746454803222166e-01 3.49275883734632910e-04 6.02300764488002366e-04
3.92200000000000000e+10 3.47670408488951225e-04 -8.30394337256870006e-05 -1.02900816200344081e-01 -2.33297164416738978e-01 -1.02900816200344081e-01 -2.33297164416738978e-01 1.26717054229688841e-04 -6.76829601319564990e-04
3.92300000000000000e+10 5.47464605157073326e-04 -6.92018429010733921e-04 -1.69648642667616145e-01 -1.89474636541367258e-01 -1.69648642667616145e-01 -1.89474636541367258e-01 3.42251822655782376e-04 7.77115649630936571e-05
3.92400000000000000e+10 -8.00156445560234325e-04 1.42824627410178336e-03 -2.20644853612954078e-01 -1.28824040846898885e-01 -2.20644853612954078e-01 -1.28824040846898885e-01 5.43637513167955855e-04 -1.02609158462103214e-04
3.92500000000000000e+10 -1.03359139360347766e-03 -3.40433361298013261e-05 -2.48087405845913378e-01 -5.32598674972498756e-02 -2.48087405845913378e-01 -5.32598674972498756e-02 3.36594259011171949e-04 -4.00572728394018888e-05
3.92600000000000000e+10 6.85762113880281532e-04 -1.31177491445876276e-03 -2.53262054633403066e-01 2.66738838709265139e-02 -2.53262054633403066e-01 2.66738838709265139e-02 6.89879298600357886e-04 -7.06864772622456329e-04
3.92700000000000000e+10 1.06210962446859781e-03 -1.21647299690218967e-04 -2.31837862960816599e-01 1.01883626680465481e-01 -2.31837862960816599e-01 1.01883626680465481e-01 6.98022924747638347e-04 -9.88178197824728967e-04
3.92800000000000000e+10 -6.04486335281853387e-04 4.92498605549170987e-04 -1.90270933477587167e-01 1.69948756331374184e-01 -1.90270933477587167e-01 1.69948756331374184e-01 5.28846102294895778e-04 -4.18533628162557844e-04
3.92900000000000000e+10 -9.44355892800352332e-04 -1.37721987533173901e-03 -1.28334927079180372e-01 2.19978358399914392e-01 -1.28334927079180372e-01 2.19978358399914392e-01 -6.95194314948666538e-04 -7.63328016995918636e-04
3.93000000000000000e+10 -8.09094112388612959e-04 -8.73411605782997919e-04 -5.30703416155843613e-02 2.49640685907712628e-01 -5.30703416155843613e-02 2.49640685907712628e-01 8.94045246568377582e-04 -2.79294937232095629e-05
3.93100000000000000e+10 -4.21268944062042603e-04 6.01546721457778722e-04 2.59647463519392593e-02 2.53154976258996300e-01 2.59647463519392593e-02 2.53154976258996300e-01 4.52358338434239707e-04 -4.43341429954803730e-04
3.93200000000000000e+10 -4.30687986496774045e-04 3.92030073982765740e-04 1.02530181666675421e-01 2.33338680706407925e-01 1.02530181666675421e-01 2.33338680706407925e-01 -1.15637080388861593e-03 1.34309362620103044e-04
3.93300000000000000e+10 -1.05502454565846015e-03 -1.15521276610092952e-03 1.68987551667959840e-01 1.88844330598108928e-01 1.68987551667959840e-01 1.88844330598108928e-01 -5.17441966100512301e-04 1.43548722389461280e-04
3.93400000000000000e+10 -2.03595427833629159e-05 4.67500501719840837e-04 2.20088594718974073e-01 1.28258022725465576e-01 2.20088594718974073e-01 1.28258022725465576e-01 1.60893732974912553e-03 3.49266276608783228e-04
3.93500000000000000e+10 -1.48938883328338708e-03 2.80465125520560504e-04 2.46851405948354474e-01 5.37497703749844763e-02 2.46851405948354474e-01 5.37497703749844763e-02 6.31890634785840506e-04 -8.88255415399719734e-04
3.93600000000000000e+10 -1.03289545305822314e-03 -1.88860682010498292e-04 2.53408144387322842e-01 -2.67910702909045055e-02 2.53408144387322842e-01 -2.67910702909045055e-02 -1.33924937263644382e-04 6.87135605467799094e-05
3.93700000000000000e+10 5.34968562965966194e-04 -1.45107776357589410e-05 2.32833985646241193e-01 -1.02386346545076154e-01 2.32833985646241193e-01 -1.02386346545076154e-01 2.99135788045271712e-05 1.47272819744542283e-03
3.93800000000000000e+10 -9.50240283978866338e-04 -2.37265014993850765e-04 1.88973161829908642e-01 -1.69867741876625261e-01 1.88973161829908642e-01 -1.69867741876625261e-01 -1.26373192422499898e-03 -2.31102050864105961e-04
3.93900000000000000e+10 -1.33728425477328233e-04 7.26421348422861841e-04 1.28802793483165146e-01 -2.20785274380661395e-01 1.28802793483165146e-01 -2.20785274380661395e-01 -6.77268357540083336e-04 -1.06280945018510605e-03
3.94000000000000000e+10 -6.15076955611184250e-04 -2.76976785622918295e-04 5.15677009823725455e-02 -2.48700466666921555e-01 5.15677009823725455e-02 -2.48700466666921555e-01 2.66885045216631129e-04 -4.20210000766629128e-04
3.94100000000000000e+10 -1.31306739981157085e-04 3.51822801362534877e-04 -2.55472648738644809e-02 -2.51263872293516266e-01 -2.55472648738644809e-02 -2.51263872293516266e-01 -5.77234498841705935e-04 7.84131305232568148e-04
3.94200000000000000e+10 -9.61985198718696283e-04 -1.05888851570177668e-04 -1.02504781801755013e-01 -2.33069751449352630e-01 -1.02504781801755013e-01 -2.33069751449352630e-01 -2.86510085005562179e-04 4.77389203024207302e-04
3.94300000000000000e+10 -1.54927466330379113e-04 7.29802776631560159e-04 -1.68456526454082739e-01 -1.88817518242411053e-01 -1.68456526454082739e-01 -1.88817518242411053e-01 5.48610286100145684e-04 -1.61075755937043388e-05
3.94400000000000000e+10 6.00514984016493523e-04 -2.79062722039157148e-04 -2.20444924847139595e-01 -1.27008152268041991e-01 -2.20444924847139595e-01 -1.27008152268041991e-01 1.07699762582267960e-03 9.65155001817212272e-04
3.94500000000000000e+10 -1.07890690248345204e-03 1.01924199147117225e-03 -2.46789436230350157e-01 -5.23278668404470668e-02 -2.46789436230350157e-01 -5.23278668404470668e-02 -8.02890041677859086e-04 1.62807559924386274e-03
3.94600000000000000e+10 -2.28695338503196236e-04 3.48945942724607444e-04 -2.53689755314237042e-01 2.63562510874486809e-02 -2.53689755314237042e-01 2.63562510874486809e-02 -8.41493811962815955e-05 1.13871888601319807e-03
3.94700000000000000e+10 -1.23944852306057856e-03 -5.59853784263202470e-04 -2.31686921235231269e-01 1.03487499909606609e-01 -2.31686921235231269e-01 1.03487499909606609e-01 1.91418409670834788e-05 -1.51163372447973778e-04
3.94800000000000000e+10 1.14185593234328482e-03 6.90657896434606245e-04 -1.87204704054393295e-01 1.70522140300948921e-01 -1.87204704054393295e-01 1.70522140300948921e-01 6.47229841150111430e-05 -3.90199053480549561e-04
3.94900000000000000e+10 1.47305248590252522e-04 -4.51589728000027837e-06 -1.26757797741253869e-01 2.17871824805008996e-01 -1.26757797741253869e-01 2.17871824805008996e-01 8.22843534264466403e-04 -8.70581232332709378e-05
3.95000000000000000e+10 2.88500875427404090e-04 -6.15571687531200787e-04 -5.31315383519715342e-02 2.47757473420485375e-01 -5.31315383519715342e-02 2.47757473420485375e-01 6.71934558403373679e-04 8.40002597127992735e-04
3.95100000000000000e+10 2.14199941213611078e-04 -1.13129166629788439e-04 2.61231402953666196e-02 2.50953698541671322e-01 2.61231402953666196e-02 2.50953698541671322e-01 -5.31881798021658953e-04 -9.82662680188592982e-04
3.95200000000000000e+10 -1.18879170604458923e-05 -3.16407948001118247e-04 1.02762983710886227e-01 2.31613097654922634e-01 1.02762983710886227e-01 2.31613097654922634e-01 -4.26972181445231741e-04 4.15559911451938090e-05
3.95300000000000000e+10 3.30111183828894338e-04 3.04012744163019572e-05 1.69980691815096896e-01 1.88459185440006505e-01 1.69980691815096896e-01 1.88459185440006505e-01 4.65315907709936945e-05 2.00807635343683565e-04
3.95400000000000000e+10 1.73741134237480441e-03 -2.29463041817209453e-04 2.20093412189198201e-01 1.26330441915051522e-01 2.20093412189198201e-01 1.26330441915051522e-01 2.04935156155979913e-04 -4.87728098173991279e-04
3.95500000000000000e+10 -6.08284033216428366e-04 -6.07403298566403329e-04 2.47122969311790924e-01 5.26273596774438773e-02 2.47122969311790924e-01 5.26273596774438773e-02 1.03906865859163195e-03 1.45108128044569624e-04
3.95600000000000000e+10 3.08760905378465143e-05 -9.87536350323492369e-05 2.52068516942661247e-01 -2.70531880334085734e-02 2.52068516942661247e-01 -2.70531880334085734e-02 1.03931972478064774e-03 3.21625368742750226e-04
3.95700000000000000e+10 -6.11226475835168880e-04 -2.66092287832632619e-04 2.30801502243819623e-01 -1.02784637082787692e-01 2.30801502243819623e-01 -1.02784637082787692e-01 -3.68866969344461119e-04 -2.16186374136753505e-03
3.95800000000000000e+10 -4.16527160269134151e-04 1.20487211346391237e-03 1.86791888894525138e-01 -1.70279371434346766e-01 1.86791888894525138e-01 -1.70279371434346766e-01 -3.59690771466818454e-04 -8.27696703130066701e-04
3.95900000000000000e+10 -3.94029151686700857e-04 -1.36615963888699911e-03 1.25723840883941729e-01 -2.18935055042361965e-01 1.25723840883941729e-01 -2.18935055042361965e-01 -5.39146754722850626e-04 4.58662200702612062e-05
3.96000000000000000e+10 1.11825710521229189e-03 -1.51276118524068743e-03 5.24066632995258061e-02 -2.47512803546933946e-01 5.24066632995258061e-02 -2.47512803546933946e-01 -7.50062434679502912e-04 -3.63542769415897595e-04
3.96100000000000000e+10 3.79612910617885279e-04 -1.15805393607198775e-03 -2.69740576170807086e-02 -2.51323370271636870e-01 -2.69740576170807086e-02 -2.51323370271636870e-01 -9.75343034796108854e-04 -6.03653896696664189e-04
3.96200000000000000e+10 7.62816421209453204e-04 -2.30274363517470314e-04 -1.02951621491763762e-01 -2.31861544814650183e-01 -1.02951621491763762e-01 -2.31861544814650183e-01 -1.53937774865860034e-05 -7.02872403496600934e-04
3.96300000000000000e+10 4.45697128100126479e-04 5.56848431162764649e-04 -1.68522034257024944e-01 -1.86516307321801106e-01 -1.68522034257024944e-01 -1.86516307321801106e-01 1.83538469542634326e-03 -1.01882631592165496e-03
3.96400000000000000e+10 -3.47078992100557861e-04 -7.50491014567846652e-04 -2.17953854752955034e-01 -1.25274129185676292e-01 -2.17953854752955034e-01 -1.25274129185676292e-01 3.02792953695363266e-04 -1.34836472075793300e-04
3.96500000000000000e+10 1.93252567210302367e-04 -4.22064353868582104e-04 -2.47415785714115682e-01 -5.24033038530139217e-02 -2.47415785714115682e-01 -5.24033038530139217e-02 1.09419963706785823e-03 6.09507144786044310e-05
3.96600000000000000e+10 -5.00905448462054550e-04 4.97729446106402718e-04 -2.50576046517268725e-01 2.79627982959768928e-02 -2.50576046517268725e-01 2.79627982959768928e-02 7.60893928584546503e-04 1.03774451352051360e-03
3.96700000000000000e+10 2.32441099407059115e-04 -1.22079090265728228e-03 -2.30806582300114388e-01 1.02760764995296530e-01 -2.30806582300114388e-01 1.02760764995296530e-01 1.37433946820687282e-03 3.94240725126301242e-05
3.96800000000000000e+10 -3.25411979540267209e-04 6.62168443633455363e-04 -1.86545503634764465e-01 1.69532866361758267e-01 -1.86545503634764465e-01 1.69532866361758267e-01 8.48920702543130818e-05 -1.06617593827832433e-04
3.96900000000000000e+10 -4.81316258769902232e-04 1.06403092973398261e-03 -1.24555398501660683e-01 2.20360637163382500e-01 -1.24555398501660683e-01 2.20360637163382500e-01 -1.94102537120363465e-04 -1.02260275564028456e-03
3.97000000000000000e+10 -9.13813106043444398e-04 1.20625151252731029e-03 -5.12993554477598618e-02 2.45740547803597581e-01 -5.12993554477598618e-02 2.45740547803597581e-01 -9.00682628192144875e-04 -3.51857512491292258e-04
3.97100000000000000e+10 -3.88314574819899479e-04 -9.89626182784753873e-04 2.76770699980525489e-02 2.51468175503921199e-01 2.76770699980525489e-02 2.51468175503921199e-01 1.27799256345701909e-04 6.10343367122835774e-04
3.97200000000000000e+10 -6.29576030866575210e-04 -2.20210781074431269e-04 1.04340705194524958e-01 2.30667997951296166e-01 1.04340705194524958e-01 2.30667997951296166e-01 4.17450405518967130e-04 -2.99595972771475887e-04
3.97300000000000000e+10 -1.10335592798499536e-03 -8.42596443961950896e-04 1.68832552191269775e-01 1.87278119531926995e-01 1.68832552191269775e-01 1.87278119531926995e-01 1.49961132375122015e-03 9.20716557273053684e-04
3.97400000000000000e+10 -5.79671213010187424e-04 -1.27617113469335455e-03 2.19640044532386447e-01 1.25766837985575392e-01 2.19640044532386447e-01 1.25766837985575392e-01 1.01381664785820709e-04 4.52631371083605301e-04
3.97500000000000000e+10 8.11553026399915796e-04 -5.12505561377666697e-04 2.46279631123758641e-01 5.01110901126525093e-02 2.46279631123758641e-01 5.01110901126525093e-02 2.37896334373159261e-04 8.54718949169880576e-05
3.97600000000000000e+10 -2.49710285036962775e-04 3.34151608001715848e-04 2.50778865248596827e-01 -2.90378930078971260e-02 2.50778865248596827e-01 -2.90378930078971260e-02 3.70794098788257008e-04 9.55906898102590091e-04
3.97700000000000000e+10 3.67608755291882214e-04 -7.89873048997995837e-04 2.29412362956831317e-01 -1.03285284133159128e-01 2.29412362956831317e-01 -1.03285284133159128e-01 -2.51225003058091752e-04 5.14120808497308996e-04
3.97800000000000000e+10 -9.80720415180791468e-04 -8.02262967751694411e-04 1.86751862002030700e-01 -1.69614387780089609e-01 1.86751862002030700e-01 -1.69614387780089609e-01 3.65585287637646967e-04 7.12882725846675268e-04
3.97900000000000000e+10 -2.96569950637063479e-04 -4.74255146335790198e-04 1.25134603554126367e-01 -2.18070131875120754e-01 1.25134603554126367e-01 -2.18070131875120754e-01 1.36489623041233460e-03 -7.20541379720583964e-06
3.98000000000000000e+10 -1.00690021688242567e-03 -2.17310331847603858e-04 5.20726219498251347e-02 -2.46747675195953559e-01 5.20726219498251347e-02 -2.46747675195953559e-01 -7.90628472486913777e-04 -5.19540677763827242e-04
3.98100000000000000e+10 1.24851272521967079e-03 3.35796452469193808e-04 -2.79106310981751295e-02 -2.51892371859200992e-01 -2.79106310981751295e-02 -2.51892371859200992e-01 3.34710377362898686e-04 -4.67170154707838379e-04
3.98200000000000000e+10 1.43688529565634635e-03 -3.89824224309680192e-04 -1.04259200206294644e-01 -2.29411348639948776e-01 -1.04259200206294644e-01 -2.29411348639948776e-01 8.78832568402743240e-04 -1.02178946259512361e-03
3.98300000000000000e+10 -4.44820511725600642e-05 4.05594939275171699e-04 -1.68814886475131237e-01 -1.86060148059592784e-01 -1.68814886475131237e-01 -1.86060148059592784e-01 4.43499427735589275e-04 -4.31040024448431499e-04
3.98400000000000000e+10 -8.66280754826770323e-05 1.43846952018406130e-04 -2.20225081068475048e-01 -1.24760077784440801e-01 -2.20225081068475048e-01 -1.24760077784440801e-01 3.64069668275738634e-04 6.60768985008647076e-04
3.98500000000000000e+10 2.50294070675940550e-04 -3.66903105993393445e-04 -2.46207920398713226e-01 -5.13785725176667540e-02 -2.46207920398713226e-01 -5.13785725176667540e-02 1.11047477077945802e-04 -2.21218661867687090e-04
3.98600000000000000e+10 -3.39918030899343448e-04 5.19130505129087889e-04 -2.50695066257998311e-01 2.82871820455729006e-02 -2.50695066257998311e-01 2.82871820455729006e-02 -8.88047869586379890e-04 1.76705061338001637e-04
3.98700000000000000e+10 -8.71991003794391904e-04 -6.90027526614765967e-04 -2.28884531130487096e-01 1.01856861144102348e-01 -2.28884531130487096e-01 1.01856861144102348e-01 -1.95240670125053451e-05 -7.15057595763818441e-04
3.98800000000000000e+10 -1.23996920201492741e-03 7.26473443437431138e-04 -1.85552775901500849e-01 1.69708361178201789e-01 -1.85552775901500849e-01 1.69708361178201789e-01 -5.53734669932094345e-04 -3.57341588209821894e-04
3.98900000000000000e+10 3.71092992076497400e-04 -8.40170275101194647e-04 -1.24076221844606482e-01 2.18927853302712916e-01 -1.24076221844606482e-01 2.18927853302712916e-01 8.03155924402180403e-04 2.52827365959240569e-04
3.99000000000000000e+10 6.25312865281122949e-04 6.17284731192600344e-04 -5.08666498492228100e-02 2.47791248617252408e-01 -5.08666498492228100e-02 2.47791248617252408e-01 -3.93981725240823892e-04 1.23774067175992241e-03
3.99100000000000000e+10 -4.00994994133912835e-04 -1.43674605499365853e-03 2.91882790816137792e-02 2.50995586083480271e-01 2.91882790816137792e-02 2.50995586083480271e-01 -9.04439595283758314e-04 -3.88858096134060624e-07
3.99200000000000000e+10 -2.78418851243140920e-04 6.69378129360072879e-04 1.04409270912798835e-01 2.29733612496182016e-01 1.04409270912798835e-01 2.29733612496182016e-01 -8.64037152198404820e-04 6.24511539150370844e-04
3.99300000000000000e+10 -6.73048675603728111e-04 7.83744149555099271e-04 1.68614672244553621e-01 1.85616188456691339e-01 1.68614672244553621e-01 1.85616188456691339e-01 2.84655490850410533e-04 -7.09496318068670142e-04
3.99400000000000000e+10 -1.01278962102801986e-03 -1.32087243771817297e-03 2.17682650843950332e-01 1.23927310924720910e-01 2.17682650843950332e-01 1.23927310924720910e-01 6.86500221982225614e-04 -2.51599749186933223e-04
3.99500000000000000e+10 -1.42912151825950844e-03 -1.72022220264506315e-04 2.45861988203168208e-01 5.06173724264249447e-02 2.45861988203168208e-01 5.06173724264249447e-02 5.93120307164470799e-06 -2.05614874242396128e-04
3.99600000000000000e+10 -4.38803422627253702e-04 6.01712828559995477e-04 2.49444795263621205e-01 -2.90149315231546211e-02 2.49444795263621205e-01 -2.90149315231546211e-02 3.72982505033054765e-04 5.60411988508143638e-04
3.99700000000000000e+10 -7.33782718941176112e-04 5.92434832927329091e-05 2.29146234354897366e-01 -1.05054520676737290e-01 2.29146234354897366e-01 -1.05054520676737290e-01 2.75823230748607523e-04 -4.61270468718137931e-04
3.99800000000000000e+10 -5.25068796887340466e-04 -2.62579003044677121e-04 1.85870601988047363e-01 -1.69426684365034358e-01 1.85870601988047363e-01 -1.69426684365034358e-01 -5.13592119555346307e-04 1.94911346326401210e-04
3.99900000000000000e+10 -1.51066727974835706e-04 6.28773634773432282e-04 1.23410800726701700e-01 -2.17776402759808307e-01 1.23410800726701700e-01 -2.17776402759808307e-01 -5.42368904444926175e-04 -7.37889745049664361e-04
4.00000000000000000e+10 9.23999341302075063e-05 1.13185186018021993e-03 4.86124626508108310e-02 -2.46246996924563699e-01 4.86124626508108310e-02 -2.46246996924563699e-01 -5.38098757235084299e-04 -8.92534853723174243e-04
